B4 H76 C68 S4 N4 O8 F16
1.0
10.214895 0.000000 -0.587914
0.000000 6.809800 0.000000
0.000000 0.000000 24.327900
B 
4 
direct
0.931570 0.178800 0.634660 B
0.568430 -0.321200 0.865340 B
0.068430 0.821200 0.365340 B
1.431570 0.321200 0.134660 B
