pymatgen v2019.10.4 with grid density = 1402 / atom
0
Gamma
1 2 1
