C2 S2 N1 O4 F6
1.0
22.439745 0.000000 0.000000
0.000000 26.580295 0.000000
0.000000 0.000000 24.401207
C S N O F
2 2 1 4 6
direct
0.501964 0.592903 0.514663 C
0.504427 0.406154 0.483513 C
0.491389 0.531084 0.547013 S
0.496698 0.469664 0.455154 S
0.460664 0.498858 0.500637 N
0.447870 0.540435 0.588879 O
0.549809 0.515725 0.563130 O
0.556594 0.485659 0.445821 O
0.458793 0.462977 0.408510 O
0.540735 0.591088 0.474184 F
0.451438 0.610462 0.494566 F
0.521991 0.624926 0.551947 F
0.535092 0.406509 0.529901 F
0.533210 0.377363 0.447737 F
0.451597 0.385789 0.493352 F
