C2 S2 N1 O4 F6
1.0
23.453932 0.000000 0.000000
0.000000 25.506861 0.000000
0.000000 0.000000 25.367399
C S N O F
2 2 1 4 6
direct
0.507120 0.581195 0.445317 C
0.500953 0.420465 0.556707 C
0.511065 0.509613 0.446883 S
0.475415 0.487745 0.549483 S
0.464082 0.493226 0.488444 N
0.568778 0.498908 0.460989 O
0.491040 0.494318 0.395928 O
0.520507 0.519366 0.570505 O
0.421514 0.487177 0.575680 O
0.454808 0.598120 0.435485 F
0.524445 0.602478 0.490430 F
0.541239 0.598936 0.407213 F
0.550608 0.413171 0.533089 F
0.507930 0.409310 0.607514 F
0.463618 0.386581 0.537031 F
