%mem=50GB
%nproc=16
#P uLC-wHPBE/6-31G iop(3/107=0272500000, 3/108=0272500000) iop(3/107=0314200000, 3/108=0314200000) opt

H6 C5

0 1
C 0.000000 0.897082 -0.935245
C 0.000000 1.134094 0.425375
C -0.000000 0.000000 1.243051
C -0.000000 -1.134094 0.425375
C -0.000000 -0.897082 -0.935245
H 0.000000 -0.000000 -1.723356
H 0.000000 1.622537 -1.745737
H 0.000000 2.164126 0.774330
H -0.000000 0.000000 2.326294
H -0.000000 -2.164126 0.774330
H -0.000000 -1.622537 -1.745737



