EMC 1.51py
19
Reciprocal
   0.0000000000    0.0000000000    0.0000000000 0.01
  -0.0862755019    0.0113442664   -0.0024541595 0.01
   0.0862755019   -0.0113442664    0.0024541595 0.01
  -0.0009144935   -0.0809742138    0.0390822049 0.01
   0.0009144935    0.0809742138   -0.0390822049 0.01
  -0.0002826039    0.0010191511   -0.1748910885 0.01
   0.0002826039   -0.0010191511    0.1748910885 0.01
  -0.0871899953   -0.0696299474    0.0366280454 0.01
   0.0871899953    0.0696299474   -0.0366280454 0.01
   0.0853610084   -0.0923184801    0.0415363645 0.01
  -0.0853610084    0.0923184801   -0.0415363645 0.01
  -0.0865581057    0.0123634174   -0.1773452480 0.01
   0.0865581057   -0.0123634174    0.1773452480 0.01
   0.0859928980   -0.0103251153   -0.1724369290 0.01
  -0.0859928980    0.0103251153    0.1724369290 0.01
  -0.0011970973   -0.0799550627   -0.1358088836 0.01
   0.0011970973    0.0799550627    0.1358088836 0.01
   0.0006318896    0.0819933648   -0.2139732934 0.01
  -0.0006318896   -0.0819933648    0.2139732934 0.01
