Ge2 H54 C44  [TRI,TRI1b,aP100] (STD_PRIM
   1.00000000000000     
     8.1959717218489700    0.0868747481257023    0.0268467090210415
    -1.0776788828800150    7.6923616980251763   -0.0968169773480368
     0.2331394395730543   -3.7127184357693386   16.6142460439078192
   C    Ge   H 
    44     2    54
Direct
  0.6789976718098458  0.3288764655264984  0.2745524787514881
  0.0184503210854317  0.3175324151848216  0.1843712063910630
  0.6747539355202079  0.3484250842490084  0.0911621158774309
  0.7201871544908727  0.9712663557307692  0.1415150180749762
  0.6244150435697904  0.3835785405233310  0.3420867007925423
  0.0912891818972454  0.2485945957196734  0.2517201182941875
  0.0538083559107392  0.5206470516121513  0.1989347222996329
  0.7493873367315302  0.2970128185063956  0.0074861752522750
  0.4874657226490626  0.3047556329467227  0.0887661829648394
  0.8433786293313332  0.8874976013194527  0.0806355851533596
  0.7068597595039208  0.8887537552573903  0.2150105390674213
  0.5619180380357705  0.4424407460700266  0.4201905215061785
  0.4571464856367342  0.3199075659082879  0.4552622325622977
  0.6052407183343220  0.6223591951666663  0.4639257418628091
  0.4133884836954778  0.1415387119394538  0.4133695636961505
  0.3947592816656780  0.3776408048333337  0.5360742581372051
  0.5428535143632729  0.6800924340917192  0.5447377674377023
  0.7065799055044550  0.7471247581005827  0.4304980902565276
  0.3136871339295340  0.0188045654893472  0.4469584541047027
  0.4380819619642295  0.5575592539299663  0.5798094784938215
  0.2934200944955450  0.2528752418994316  0.5695019097434724
  0.5866115163045222  0.8584612880605462  0.5866304363038495
  0.7481010769888670  0.9239093264887899  0.4722751206593543
  0.2712075926519901  0.8372167134801032  0.4046189625694012
  0.2518989230111330  0.0760906735112030  0.5277248793406599
  0.3755849564301954  0.6164214594766690  0.6579132992074719
  0.6863128660704589  0.9811954345106599  0.5530415458952973
  0.8502235925697335  0.0513373542238753  0.4386598719792119
  0.1736762608943323  0.7192284053449853  0.4394312278358399
  0.1497764074302737  0.9486626457761247  0.5613401280207952
  0.3210023281901684  0.6711235344735016  0.7254475212485119
  0.7287924073480099  0.1627832865198968  0.5953810374305917
  0.8878874487841202  0.2241325516749129  0.4813072962864879
  0.1121125512158798  0.7758674483250871  0.5186927037135121
  0.8263237391056677  0.2807715946550147  0.5605687721641601
  0.9815496789145683  0.6824675848151784  0.8156287936089370
  0.3252460644797921  0.6515749157509916  0.9088378841225762
  0.2798128455091344  0.0287336442692308  0.8584849819250238
  0.9087108181027546  0.7514054042803266  0.7482798817058196
  0.9461916440892537  0.4793529483878487  0.8010652777003671
  0.2506126632684698  0.7029871814936044  0.9925138247477250
  0.5125342773509374  0.6952443670532773  0.9112338170351606
  0.1566213706686668  0.1125023986805331  0.9193644148466404
  0.2931402404960792  0.1112462447426097  0.7849894609325787
  0.7756321945669242  0.2382589270499267  0.1713506142812520
  0.2243678054330758  0.7617410729500662  0.8286493857187480
  0.0716234893523833  0.2569421018004761  0.1262582273636212
  0.7069680944285039  0.4928830796349999  0.1153170441004079
  0.5981816244033595  0.9490492429270247  0.1118053834454429
  0.2237657162730287  0.2964730406124616  0.2605775525372209
  0.0774638216416861  0.1021579795871475  0.2389414128954215
  0.0308736021591827  0.2950947405370243  0.3094420560735145
  0.1873233999652868  0.5644693510563812  0.2052328578238942
  0.9968920324332089  0.5863765628021582  0.2549096854592960
  0.0080907882232069  0.5711363061084072  0.1492907409666415
  0.6993270162330134  0.3664529546479685  0.9653906693935923
  0.7210954028899437  0.1531201674142153  0.9809387069115232
  0.8839445643588846  0.3303141248587309  0.0087098297629709
  0.4316247815622063  0.3722730307800646  0.0476016309468577
  0.4341440603390794  0.3459771207300122  0.1487054313818277
  0.4488083628876680  0.1607463271418794  0.0666369933712403
  0.8083807156906886  0.7421938639163272  0.0606432770073582
  0.9677020678903361  0.9086564855565413  0.1074737594332262
  0.8516156019258361  0.9417297511646225  0.0263202821519499
  0.6586519234958033  0.7459311749947233  0.1976724837866257
  0.6260051565159159  0.9543877440088977  0.2611817474662175
  0.8279498514496879  0.8986497108442606  0.2438088686308575
  0.4609322572275119  0.0987684811758740  0.3528243336463746
  0.7532424025171238  0.7029500438011169  0.3698248855375752
  0.2467575974828762  0.2970499561988831  0.6301751144624177
  0.5390677427724881  0.9012315188241189  0.6471756663536254
  0.3197167915440531  0.7940334642993463  0.3442372362686186
  0.8986834172602087  0.0080161510338712  0.3783761988028758
  0.1435347810936847  0.5807310900578386  0.4067311473669193
  0.1013165827397842  0.9919838489661359  0.6216238011971313
  0.6802832084559540  0.2059665357006608  0.6557627637313885
  0.9662738356921849  0.3197198501443737  0.4549523578937595
  0.0337261643078151  0.6802801498556335  0.5450476421062405
  0.8564652189063153  0.4192689099421614  0.5932688526330807
  0.9283765106476238  0.7430578981995239  0.8737417726363788
  0.2930319055715032  0.5071169203650001  0.8846829558995992
  0.4018183755966405  0.0509507570729681  0.8881946165545642
  0.7762342837269784  0.7035269593875313  0.7394224474627791
  0.9225361783583139  0.8978420204128454  0.7610585871045785
  0.9691263978408173  0.7049052594629686  0.6905579439264855
  0.8126766000347203  0.4355306489436188  0.7947671421761058
  0.0031079675667911  0.4136234371978418  0.7450903145406969
  0.9919092117767860  0.4288636938915928  0.8507092590333585
  0.3006729837669866  0.6335470453520315  0.0346093306064077
  0.2789045971100492  0.8468798325857847  0.0190612930884697
  0.1160554356411154  0.6696858751412620  0.9912901702370291
  0.5683752184378008  0.6277269692199425  0.9523983690531423
  0.5658559396609206  0.6540228792699878  0.8512945686181723
  0.5511916371123249  0.8392536728581277  0.9333630066287597
  0.1916192843093114  0.2578061360836728  0.9393567229926489
  0.0322979321096568  0.0913435144434658  0.8925262405667738
  0.1483843980741639  0.0582702488353704  0.9736797178480430
  0.3413480765042038  0.2540688250052767  0.8023275162133743
  0.3739948434840770  0.0456122559910952  0.7388182525337754
  0.1720501485503192  0.1013502891557465  0.7561911313691283
 
  0.00000000E+00  0.00000000E+00  0.00000000E+00
  0.00000000E+00  0.00000000E+00  0.00000000E+00
  0.00000000E+00  0.00000000E+00  0.00000000E+00
  0.00000000E+00  0.00000000E+00  0.00000000E+00
  0.00000000E+00  0.00000000E+00  0.00000000E+00
  0.00000000E+00  0.00000000E+00  0.00000000E+00
  0.00000000E+00  0.00000000E+00  0.00000000E+00
  0.00000000E+00  0.00000000E+00  0.00000000E+00
  0.00000000E+00  0.00000000E+00  0.00000000E+00
  0.00000000E+00  0.00000000E+00  0.00000000E+00
  0.00000000E+00  0.00000000E+00  0.00000000E+00
  0.00000000E+00  0.00000000E+00  0.00000000E+00
  0.00000000E+00  0.00000000E+00  0.00000000E+00
  0.00000000E+00  0.00000000E+00  0.00000000E+00
  0.00000000E+00  0.00000000E+00  0.00000000E+00
  0.00000000E+00  0.00000000E+00  0.00000000E+00
  0.00000000E+00  0.00000000E+00  0.00000000E+00
  0.00000000E+00  0.00000000E+00  0.00000000E+00
  0.00000000E+00  0.00000000E+00  0.00000000E+00
  0.00000000E+00  0.00000000E+00  0.00000000E+00
  0.00000000E+00  0.00000000E+00  0.00000000E+00
  0.00000000E+00  0.00000000E+00  0.00000000E+00
  0.00000000E+00  0.00000000E+00  0.00000000E+00
  0.00000000E+00  0.00000000E+00  0.00000000E+00
  0.00000000E+00  0.00000000E+00  0.00000000E+00
  0.00000000E+00  0.00000000E+00  0.00000000E+00
  0.00000000E+00  0.00000000E+00  0.00000000E+00
  0.00000000E+00  0.00000000E+00  0.00000000E+00
  0.00000000E+00  0.00000000E+00  0.00000000E+00
  0.00000000E+00  0.00000000E+00  0.00000000E+00
  0.00000000E+00  0.00000000E+00  0.00000000E+00
  0.00000000E+00  0.00000000E+00  0.00000000E+00
  0.00000000E+00  0.00000000E+00  0.00000000E+00
  0.00000000E+00  0.00000000E+00  0.00000000E+00
  0.00000000E+00  0.00000000E+00  0.00000000E+00
  0.00000000E+00  0.00000000E+00  0.00000000E+00
  0.00000000E+00  0.00000000E+00  0.00000000E+00
  0.00000000E+00  0.00000000E+00  0.00000000E+00
  0.00000000E+00  0.00000000E+00  0.00000000E+00
  0.00000000E+00  0.00000000E+00  0.00000000E+00
  0.00000000E+00  0.00000000E+00  0.00000000E+00
  0.00000000E+00  0.00000000E+00  0.00000000E+00
  0.00000000E+00  0.00000000E+00  0.00000000E+00
  0.00000000E+00  0.00000000E+00  0.00000000E+00
  0.00000000E+00  0.00000000E+00  0.00000000E+00
  0.00000000E+00  0.00000000E+00  0.00000000E+00
  0.00000000E+00  0.00000000E+00  0.00000000E+00
  0.00000000E+00  0.00000000E+00  0.00000000E+00
  0.00000000E+00  0.00000000E+00  0.00000000E+00
  0.00000000E+00  0.00000000E+00  0.00000000E+00
  0.00000000E+00  0.00000000E+00  0.00000000E+00
  0.00000000E+00  0.00000000E+00  0.00000000E+00
  0.00000000E+00  0.00000000E+00  0.00000000E+00
  0.00000000E+00  0.00000000E+00  0.00000000E+00
  0.00000000E+00  0.00000000E+00  0.00000000E+00
  0.00000000E+00  0.00000000E+00  0.00000000E+00
  0.00000000E+00  0.00000000E+00  0.00000000E+00
  0.00000000E+00  0.00000000E+00  0.00000000E+00
  0.00000000E+00  0.00000000E+00  0.00000000E+00
  0.00000000E+00  0.00000000E+00  0.00000000E+00
  0.00000000E+00  0.00000000E+00  0.00000000E+00
  0.00000000E+00  0.00000000E+00  0.00000000E+00
  0.00000000E+00  0.00000000E+00  0.00000000E+00
  0.00000000E+00  0.00000000E+00  0.00000000E+00
  0.00000000E+00  0.00000000E+00  0.00000000E+00
  0.00000000E+00  0.00000000E+00  0.00000000E+00
  0.00000000E+00  0.00000000E+00  0.00000000E+00
  0.00000000E+00  0.00000000E+00  0.00000000E+00
  0.00000000E+00  0.00000000E+00  0.00000000E+00
  0.00000000E+00  0.00000000E+00  0.00000000E+00
  0.00000000E+00  0.00000000E+00  0.00000000E+00
  0.00000000E+00  0.00000000E+00  0.00000000E+00
  0.00000000E+00  0.00000000E+00  0.00000000E+00
  0.00000000E+00  0.00000000E+00  0.00000000E+00
  0.00000000E+00  0.00000000E+00  0.00000000E+00
  0.00000000E+00  0.00000000E+00  0.00000000E+00
  0.00000000E+00  0.00000000E+00  0.00000000E+00
  0.00000000E+00  0.00000000E+00  0.00000000E+00
  0.00000000E+00  0.00000000E+00  0.00000000E+00
  0.00000000E+00  0.00000000E+00  0.00000000E+00
  0.00000000E+00  0.00000000E+00  0.00000000E+00
  0.00000000E+00  0.00000000E+00  0.00000000E+00
  0.00000000E+00  0.00000000E+00  0.00000000E+00
  0.00000000E+00  0.00000000E+00  0.00000000E+00
  0.00000000E+00  0.00000000E+00  0.00000000E+00
  0.00000000E+00  0.00000000E+00  0.00000000E+00
  0.00000000E+00  0.00000000E+00  0.00000000E+00
  0.00000000E+00  0.00000000E+00  0.00000000E+00
  0.00000000E+00  0.00000000E+00  0.00000000E+00
  0.00000000E+00  0.00000000E+00  0.00000000E+00
  0.00000000E+00  0.00000000E+00  0.00000000E+00
  0.00000000E+00  0.00000000E+00  0.00000000E+00
  0.00000000E+00  0.00000000E+00  0.00000000E+00
  0.00000000E+00  0.00000000E+00  0.00000000E+00
  0.00000000E+00  0.00000000E+00  0.00000000E+00
  0.00000000E+00  0.00000000E+00  0.00000000E+00
  0.00000000E+00  0.00000000E+00  0.00000000E+00
  0.00000000E+00  0.00000000E+00  0.00000000E+00
  0.00000000E+00  0.00000000E+00  0.00000000E+00
  0.00000000E+00  0.00000000E+00  0.00000000E+00
