H19 C17 S1 N1 O2
1.0
29.057756 0.000000 0.000000
0.000000 26.475390 0.000000
0.000000 0.000000 29.101113
H C S N O
19 17 1 1 2
direct
0.394037 0.452629 0.505923 H
0.347449 0.437189 0.568667 H
0.377542 0.436270 0.643433 H
0.455733 0.451038 0.654761 H
0.439540 0.427965 0.460728 H
0.487392 0.441504 0.436672 H
0.541019 0.485378 0.436110 H
0.422737 0.488258 0.406702 H
0.419336 0.516711 0.455280 H
0.618636 0.483091 0.577157 H
0.619650 0.497476 0.439089 H
0.659165 0.495702 0.509350 H
0.441755 0.598915 0.410018 H
0.435369 0.559361 0.368738 H
0.515275 0.571839 0.349544 H
0.484517 0.621461 0.342020 H
0.580422 0.621717 0.357586 H
0.582631 0.664591 0.396288 H
0.551202 0.672546 0.351713 H
0.407179 0.451701 0.535798 C
0.454975 0.459330 0.541185 C
0.379388 0.442975 0.573244 C
0.472401 0.459355 0.586588 C
0.397180 0.442414 0.617943 C
0.443375 0.450885 0.624536 C
0.530532 0.475429 0.505488 C
0.462935 0.454839 0.457010 C
0.554941 0.476144 0.547646 C
0.556308 0.484436 0.464953 C
0.440641 0.499719 0.433701 C
0.602776 0.483415 0.548615 C
0.603089 0.491784 0.466754 C
0.626761 0.491019 0.508636 C
0.457789 0.573481 0.390901 C
0.496838 0.597974 0.365455 C
0.562751 0.647702 0.373841 C
0.529636 0.466244 0.600512 S
0.483508 0.466066 0.503041 N
0.475486 0.533908 0.419559 O
0.525173 0.624892 0.396892 O
