Cl1 O4
1.0
22.097013 0.000000 0.000000
0.000000 22.274434 0.000000
0.000000 0.000000 22.298651
Cl O
1 4
direct
0.500024 0.500031 0.500026 Cl
0.477586 0.559876 0.492057 O
0.450994 0.457767 0.492944 O
0.525472 0.493884 0.559013 O
0.545895 0.488404 0.455928 O
