%mem=50GB
%nproc=16
#P uLC-wHPBE/6-31G iop(3/107=0362400000, 3/108=0362400000) opt

H6 C5

0 1
C -1.206512 0.696580 0.000000
C -1.206512 -0.696580 0.000000
C -0.000000 -1.393160 0.000000
C 1.206512 -0.696580 0.000000
C 1.206512 0.696580 0.000000
H 0.000000 2.482681 0.000000
H -2.150065 1.241340 0.000000
H -2.150065 -1.241340 0.000000
H -0.000000 -2.482681 0.000000
H 2.150065 -1.241340 0.000000
H 2.150065 1.241340 0.000000



