B1 F4
1.0
22.129499 0.000000 0.000000
0.000000 22.028027 0.000000
0.000000 0.000000 22.011509
B F
1 4
direct
0.500376 0.500026 0.500433 B
0.514413 0.471987 0.445409 F
0.551216 0.502988 0.536793 F
0.454987 0.466472 0.529021 F
0.479170 0.558538 0.488530 F
