H76 C76 S12 N8 O24 F24
1.0
9.006333 0.000000 -1.712512
0.000000 16.968100 0.000000
0.000000 0.000000 15.439000
H C S N O F
76 76 12 8 24 24
direct
0.029915 0.270563 0.553553 H
0.181026 0.227547 0.459362 H
0.186713 0.293557 0.326283 H
0.042402 0.405587 0.290644 H
-0.172162 0.282657 0.586338 H
-0.264426 0.348257 0.627257 H
-0.293802 0.458535 0.649996 H
-0.053239 0.292611 0.728980 H
0.051623 0.340790 0.675501 H
-0.330195 0.610643 0.393823 H
-0.437371 0.571254 0.631966 H
-0.457207 0.648188 0.504092 H
0.132261 0.391902 0.819774 H
-0.004548 0.359883 0.860924 H
-0.077328 0.496150 0.874423 H
0.074075 0.471716 0.938967 H
0.167515 0.648550 0.854987 H
0.174557 0.600562 0.944908 H
0.017808 0.628768 0.889810 H
-0.029915 0.770563 -0.053553 H
-0.181026 0.727547 0.040638 H
-0.186713 0.793557 0.173717 H
-0.042402 0.905587 0.209356 H
0.172162 0.782657 -0.086338 H
0.264426 0.848257 -0.127257 H
0.293802 0.958535 -0.149996 H
0.053239 0.792611 -0.228980 H
-0.051623 0.840790 -0.175501 H
0.330195 1.110643 0.106177 H
0.437371 1.071254 -0.131966 H
0.457207 1.148188 -0.004092 H
-0.132261 0.891902 -0.319774 H
0.004548 0.859883 -0.360924 H
0.077328 0.996150 -0.374423 H
-0.074075 0.971716 -0.438967 H
-0.167515 1.148550 -0.354987 H
-0.174557 1.100562 -0.444908 H
-0.017808 1.128768 -0.389810 H
-0.029915 0.729437 0.446447 H
-0.181026 0.772453 0.540638 H
-0.186713 0.706443 0.673717 H
-0.042402 0.594413 0.709356 H
0.172162 0.717343 0.413662 H
0.264426 0.651743 0.372743 H
0.293802 0.541465 0.350004 H
0.053239 0.707389 0.271020 H
-0.051623 0.659210 0.324499 H
0.330195 0.389357 0.606177 H
0.437371 0.428746 0.368034 H
0.457207 0.351812 0.495908 H
-0.132261 0.608098 0.180226 H
0.004548 0.640117 0.139076 H
0.077328 0.503850 0.125577 H
-0.074075 0.528284 0.061033 H
-0.167515 0.351450 0.145013 H
-0.174557 0.399438 0.055092 H
-0.017808 0.371232 0.110190 H
0.029915 0.229437 0.053553 H
0.181026 0.272453 -0.040638 H
0.186713 0.206443 -0.173717 H
0.042402 0.094413 -0.209356 H
-0.172162 0.217343 0.086338 H
-0.264426 0.151743 0.127257 H
-0.293802 0.041465 0.149996 H
-0.053239 0.207389 0.228980 H
0.051623 0.159210 0.175501 H
-0.330195 -0.110643 -0.106177 H
-0.437371 -0.071254 0.131966 H
-0.457207 -0.148188 0.004092 H
0.132261 0.108098 0.319774 H
-0.004548 0.140117 0.360924 H
-0.077328 0.003850 0.374423 H
0.074075 0.028284 0.438967 H
0.167515 -0.148550 0.354987 H
0.174557 -0.100562 0.444908 H
0.017808 -0.128768 0.389810 H
0.032040 0.298940 0.500760 C
-0.056710 0.367190 0.481550 C
0.121180 0.273020 0.444380 C
-0.050010 0.406860 0.401650 C
0.125510 0.312450 0.365110 C
0.040320 0.378610 0.344320 C
-0.226640 0.462420 0.530270 C
-0.167570 0.336870 0.610380 C
-0.238130 0.510190 0.453940 C
-0.301760 0.488200 0.597140 C
-0.047220 0.340110 0.692580 C
-0.323700 0.579200 0.445310 C
-0.386180 0.555650 0.586650 C
-0.398190 0.601780 0.510550 C
0.029370 0.403500 0.826980 C
0.026640 0.479290 0.876460 C
0.116900 0.609420 0.885560 C
-0.032040 0.798940 -0.000760 C
0.056710 0.867190 0.018450 C
-0.121180 0.773020 0.055620 C
0.050010 0.906860 0.098350 C
-0.125510 0.812450 0.134890 C
-0.040320 0.878610 0.155680 C
0.226640 0.962420 -0.030270 C
0.167570 0.836870 -0.110380 C
0.238130 1.010190 0.046060 C
0.301760 0.988200 -0.097140 C
0.047220 0.840110 -0.192580 C
0.323700 1.079200 0.054690 C
0.386180 1.055650 -0.086650 C
0.398190 1.101780 -0.010550 C
-0.029370 0.903500 -0.326980 C
-0.026640 0.979290 -0.376460 C
-0.116900 1.109420 -0.385560 C
-0.032040 0.701060 0.499240 C
0.056710 0.632810 0.518450 C
-0.121180 0.726980 0.555620 C
0.050010 0.593140 0.598350 C
-0.125510 0.687550 0.634890 C
-0.040320 0.621390 0.655680 C
0.226640 0.537580 0.469730 C
0.167570 0.663130 0.389620 C
0.238130 0.489810 0.546060 C
0.301760 0.511800 0.402860 C
0.047220 0.659890 0.307420 C
0.323700 0.420800 0.554690 C
0.386180 0.444350 0.413350 C
0.398190 0.398220 0.489450 C
-0.029370 0.596500 0.173020 C
-0.026640 0.520710 0.123540 C
-0.116900 0.390580 0.114440 C
0.032040 0.201060 0.000760 C
-0.056710 0.132810 -0.018450 C
0.121180 0.226980 -0.055620 C
-0.050010 0.093140 -0.098350 C
0.125510 0.187550 -0.134890 C
0.040320 0.121390 -0.155680 C
-0.226640 0.037580 0.030270 C
-0.167570 0.163130 0.110380 C
-0.238130 -0.010190 -0.046060 C
-0.301760 0.011800 0.097140 C
-0.047220 0.159890 0.192580 C
-0.323700 -0.079200 -0.054690 C
-0.386180 -0.055650 0.086650 C
-0.398190 -0.101780 0.010550 C
0.029370 0.096500 0.326980 C
0.026640 0.020710 0.376460 C
0.116900 -0.109420 0.385560 C
0.432900 0.839210 0.658070 C
0.575900 0.597610 0.853630 C
0.567100 0.339210 0.841930 C
0.424100 0.097610 0.646370 C
0.567100 0.160790 0.341930 C
0.424100 0.402390 0.146370 C
0.432900 0.660790 0.158070 C
0.575900 0.902390 0.353630 C
-0.157400 0.487790 0.364900 S
0.157400 0.987790 0.135100 S
0.157400 0.512210 0.635100 S
-0.157400 0.012210 -0.135100 S
0.389970 0.736290 0.676950 S
0.601200 0.701420 0.827710 S
0.610030 0.236290 0.823050 S
0.398800 0.201420 0.672290 S
0.610030 0.263710 0.323050 S
0.398800 0.298580 0.172290 S
0.389970 0.763710 0.176950 S
0.601200 0.798580 0.327710 S
-0.145400 0.392830 0.539770 N
0.145400 0.892830 -0.039770 N
0.145400 0.607170 0.460230 N
-0.145400 0.107170 0.039770 N
0.544650 0.703380 0.725040 N
0.455350 0.203380 0.774960 N
0.455350 0.296620 0.274960 N
0.544650 0.796620 0.225040 N
-0.064670 0.408700 0.742390 O
0.103850 0.537670 0.837800 O
0.064670 0.908700 -0.242390 O
-0.103850 1.037670 -0.337800 O
0.064670 0.591300 0.257610 O
-0.103850 0.462330 0.162200 O
-0.064670 0.091300 0.242390 O
0.103850 -0.037670 0.337800 O
0.356860 0.703160 0.590470 O
0.275120 0.739310 0.727800 O
0.517120 0.744570 0.880500 O
0.758880 0.710190 0.844530 O
0.643140 0.203160 0.909530 O
0.724880 0.239310 0.772200 O
0.482880 0.244570 0.619500 O
0.241120 0.210190 0.655470 O
0.643140 0.296840 0.409530 O
0.724880 0.260690 0.272200 O
0.482880 0.255430 0.119500 O
0.241120 0.289810 0.155470 O
0.356860 0.796840 0.090470 O
0.275120 0.760690 0.227800 O
0.517120 0.755430 0.380500 O
0.758880 0.789810 0.344530 O
0.474370 0.877250 0.734140 F
0.540790 0.845070 0.612470 F
0.313380 0.875310 0.613440 F
0.626470 0.585260 0.938930 F
0.650840 0.551230 0.808610 F
0.434930 0.577240 0.834930 F
0.525630 0.377250 0.765860 F
0.459210 0.345070 0.887530 F
0.686620 0.375310 0.886560 F
0.373530 0.085260 0.561070 F
0.349160 0.051230 0.691390 F
0.565070 0.077240 0.665070 F
0.525630 0.122750 0.265860 F
0.459210 0.154930 0.387530 F
0.686620 0.124690 0.386560 F
0.373530 0.414740 0.061070 F
0.349160 0.448770 0.191390 F
0.565070 0.422760 0.165070 F
0.474370 0.622750 0.234140 F
0.540790 0.654930 0.112470 F
0.313380 0.624690 0.113440 F
0.626470 0.914740 0.438930 F
0.650840 0.948770 0.308610 F
0.434930 0.922760 0.334930 F
