H88 C120 S24 N16 O32 F48
1.0
17.261031 0.000000 -5.779480
0.000000 11.140500 0.000000
0.000000 0.000000 19.316000
H C S N O F
88 120 24 16 32 48
direct
0.267181 0.377769 0.326541 H
0.363362 0.234828 0.352176 H
0.466654 0.239329 0.461208 H
0.470978 0.387169 0.547029 H
0.191603 0.656531 0.311700 H
0.157053 0.528064 0.321884 H
0.230445 0.536806 0.293468 H
0.151267 0.734751 0.380885 H
0.334484 0.773445 0.612068 H
0.141107 0.887093 0.458097 H
0.232720 0.908875 0.573686 H
0.232819 0.877769 0.173459 H
0.136638 0.734828 0.147824 H
0.033346 0.739329 0.038792 H
0.029022 0.887169 -0.047029 H
0.308397 1.156531 0.188300 H
0.342947 1.028064 0.178116 H
0.269555 1.036806 0.206532 H
0.348733 1.234751 0.119115 H
0.165516 1.273445 -0.112068 H
0.358893 1.387093 0.041903 H
0.267280 1.408875 -0.073686 H
0.732819 0.622231 0.673459 H
0.636638 0.765172 0.647824 H
0.533346 0.760671 0.538792 H
0.529022 0.612831 0.452971 H
0.808397 0.343469 0.688300 H
0.842947 0.471936 0.678116 H
0.769555 0.463194 0.706532 H
0.848733 0.265249 0.619115 H
0.665516 0.226555 0.387932 H
0.858893 0.112907 0.541903 H
0.767280 0.091125 0.426314 H
-0.232819 1.122231 -0.173459 H
-0.136638 1.265172 -0.147824 H
-0.033346 1.260671 -0.038792 H
-0.029022 1.112831 0.047029 H
-0.308397 0.843469 -0.188300 H
-0.342947 0.971936 -0.178116 H
-0.269555 0.963194 -0.206532 H
-0.348733 0.765249 -0.119115 H
-0.165516 0.726555 0.112068 H
-0.358893 0.612907 -0.041903 H
-0.267280 0.591125 0.073686 H
0.155319 0.240479 0.437447 H
0.239838 0.080700 0.453422 H
0.352127 0.070362 0.554543 H
0.379813 0.223477 0.639903 H
0.097898 0.532447 0.434155 H
0.060211 0.409200 0.448903 H
0.123881 0.407951 0.407732 H
0.066521 0.597208 0.517983 H
0.279244 0.621055 0.731269 H
0.070528 0.739941 0.605896 H
0.175539 0.751218 0.713468 H
0.344681 0.740479 1.062553 H
0.260162 0.580700 1.046578 H
0.147873 0.570362 0.945457 H
0.120187 0.723477 0.860097 H
0.402102 1.032447 1.065845 H
0.439789 0.909200 1.051097 H
0.376119 0.907951 1.092268 H
0.433479 1.097208 0.982017 H
0.220756 1.121055 0.768731 H
0.429472 1.239941 0.894104 H
0.324461 1.251218 0.786532 H
0.844681 0.759521 0.562553 H
0.760162 0.919300 0.546578 H
0.647873 0.929638 0.445457 H
0.620187 0.776523 0.360097 H
0.902102 0.467553 0.565845 H
0.939789 0.590800 0.551097 H
0.876119 0.592049 0.592268 H
0.933479 0.402792 0.482017 H
0.720756 0.378945 0.268731 H
0.929472 0.260059 0.394104 H
0.824461 0.248782 0.286532 H
-0.344681 0.259521 -0.062553 H
-0.260162 0.419300 -0.046578 H
-0.147873 0.429638 0.054543 H
-0.120187 0.276523 0.139903 H
-0.402102 -0.032447 -0.065845 H
-0.439789 0.090800 -0.051097 H
-0.376119 0.092049 -0.092268 H
-0.433479 -0.097208 0.017983 H
-0.220756 -0.121055 0.231269 H
-0.429472 -0.239941 0.105896 H
-0.324461 -0.251218 0.213468 H
0.308910 0.382400 0.370990 C
0.311440 0.477000 0.419940 C
0.365790 0.296800 0.386600 C
0.372540 0.475400 0.487410 C
0.427140 0.298600 0.451750 C
0.429920 0.386400 0.501990 C
0.250360 0.658900 0.448940 C
0.204590 0.572800 0.325860 C
0.304310 0.671700 0.519450 C
0.189080 0.741600 0.427710 C
0.297270 0.765200 0.565010 C
0.183090 0.832200 0.473650 C
0.237260 0.845200 0.542560 C
0.191090 0.882400 0.129010 C
0.188560 0.977000 0.080060 C
0.134210 0.796800 0.113400 C
0.127460 0.975400 0.012590 C
0.072860 0.798600 0.048250 C
0.070080 0.886400 -0.001990 C
0.249640 1.158900 0.051060 C
0.295410 1.072800 0.174140 C
0.195690 1.171700 -0.019450 C
0.310920 1.241600 0.072290 C
0.202730 1.265200 -0.065010 C
0.316910 1.332200 0.026350 C
0.262740 1.345200 -0.042560 C
0.691090 0.617600 0.629010 C
0.688560 0.523000 0.580060 C
0.634210 0.703200 0.613400 C
0.627460 0.524600 0.512590 C
0.572860 0.701400 0.548250 C
0.570080 0.613600 0.498010 C
0.749640 0.341100 0.551060 C
0.795410 0.427200 0.674140 C
0.695690 0.328300 0.480550 C
0.810920 0.258400 0.572290 C
0.702730 0.234800 0.434990 C
0.816910 0.167800 0.526350 C
0.762740 0.154800 0.457440 C
-0.191090 1.117600 -0.129010 C
-0.188560 1.023000 -0.080060 C
-0.134210 1.203200 -0.113400 C
-0.127460 1.024600 -0.012590 C
-0.072860 1.201400 -0.048250 C
-0.070080 1.113600 0.001990 C
-0.249640 0.841100 -0.051060 C
-0.295410 0.927200 -0.174140 C
-0.195690 0.828300 0.019450 C
-0.310920 0.758400 -0.072290 C
-0.202730 0.734800 0.065010 C
-0.316910 0.667800 -0.026350 C
-0.262740 0.654800 0.042560 C
0.201400 0.239500 0.478130 C
0.218190 0.336100 0.527760 C
0.251260 0.143900 0.488250 C
0.285570 0.327600 0.588890 C
0.318300 0.137300 0.548440 C
0.334700 0.227900 0.598350 C
0.171580 0.519900 0.570190 C
0.107680 0.447200 0.445930 C
0.234780 0.528400 0.635360 C
0.110150 0.600900 0.560940 C
0.235980 0.615700 0.688080 C
0.112490 0.685500 0.613440 C
0.175150 0.692900 0.677480 C
0.298600 0.739500 1.021870 C
0.281810 0.836100 0.972240 C
0.248740 0.643900 1.011750 C
0.214430 0.827600 0.911110 C
0.181700 0.637300 0.951560 C
0.165300 0.727900 0.901650 C
0.328420 1.019900 0.929810 C
0.392320 0.947200 1.054070 C
0.265220 1.028400 0.864640 C
0.389850 1.100900 0.939060 C
0.264020 1.115700 0.811920 C
0.387510 1.185500 0.886560 C
0.324850 1.192900 0.822520 C
0.798600 0.760500 0.521870 C
0.781810 0.663900 0.472240 C
0.748740 0.856100 0.511750 C
0.714430 0.672400 0.411110 C
0.681700 0.862700 0.451560 C
0.665300 0.772100 0.401650 C
0.828420 0.480100 0.429810 C
0.892320 0.552800 0.554070 C
0.765220 0.471600 0.364640 C
0.889850 0.399100 0.439060 C
0.764020 0.384300 0.311920 C
0.887510 0.314500 0.386560 C
0.824850 0.307100 0.322520 C
-0.298600 0.260500 -0.021870 C
-0.281810 0.163900 0.027760 C
-0.248740 0.356100 -0.011750 C
-0.214430 0.172400 0.088890 C
-0.181700 0.362700 0.048440 C
-0.165300 0.272100 0.098350 C
-0.328420 -0.019900 0.070190 C
-0.392320 0.052800 -0.054070 C
-0.265220 -0.028400 0.135360 C
-0.389850 -0.100900 0.060940 C
-0.264020 -0.115700 0.188080 C
-0.387510 -0.185500 0.113440 C
-0.324850 -0.192900 0.177480 C
0.566590 0.444300 0.107390 C
0.558210 0.076300 0.251170 C
0.933410 0.944300 0.392610 C
0.941790 0.576300 0.248830 C
0.433410 0.555700 0.892610 C
0.441790 0.923700 0.748830 C
0.066590 0.055700 0.607390 C
0.058210 0.423700 0.751170 C
0.415760 0.951100 0.382380 C
0.417000 0.567900 0.237440 C
0.084240 0.451100 0.117620 C
0.083000 0.067900 0.262560 C
0.584240 0.048900 0.617620 C
0.583000 0.432100 0.762560 C
0.915760 0.548900 0.882380 C
0.917000 0.932100 0.737440 C
0.383620 0.580330 0.554910 S
0.116380 1.080330 -0.054910 S
0.616380 0.419670 0.445090 S
-0.116380 0.919670 0.054910 S
0.315640 0.439030 0.653290 S
0.184360 0.939030 0.846710 S
0.684360 0.560970 0.346710 S
-0.184360 0.060970 0.153290 S
0.571950 0.280410 0.111050 S
0.523510 0.230340 0.231300 S
0.928050 0.780410 0.388950 S
0.976490 0.730340 0.268700 S
0.428050 0.719590 0.888950 S
0.476490 0.769660 0.768700 S
0.071950 0.219590 0.611050 S
0.023510 0.269660 0.731300 S
0.390230 0.794670 0.358460 S
0.447210 0.724700 0.246320 S
0.109770 0.294670 0.141540 S
0.052790 0.224700 0.253680 S
0.609770 0.205330 0.641540 S
0.552790 0.275300 0.753680 S
0.890230 0.705330 0.858460 S
0.947210 0.775300 0.746320 S
0.256600 0.568120 0.401660 N
0.243400 1.068120 0.098340 N
0.743400 0.431880 0.598340 N
-0.243400 0.931880 -0.098340 N
0.169410 0.434990 0.516600 N
0.330590 0.934990 0.983400 N
0.830590 0.565010 0.483400 N
-0.330590 0.065010 0.016600 N
0.508110 0.242890 0.146530 N
0.991890 0.742890 0.353470 N
0.491890 0.757110 0.853470 N
0.008110 0.257110 0.646530 N
0.457310 0.753300 0.328550 N
0.042690 0.253300 0.171450 N
0.542690 0.246700 0.671450 N
0.957310 0.746700 0.828550 N
0.650370 0.255900 0.153040 O
0.544740 0.245390 0.035990 O
0.584780 0.302740 0.277240 O
0.450270 0.229040 0.243790 O
0.849630 0.755900 0.346960 O
0.955260 0.745390 0.464010 O
0.915220 0.802740 0.222760 O
1.049730 0.729040 0.256210 O
0.349630 0.744100 0.846960 O
0.455260 0.754610 0.964010 O
0.415220 0.697260 0.722760 O
0.549730 0.770960 0.756210 O
0.150370 0.244100 0.653040 O
0.044740 0.254610 0.535990 O
0.084780 0.197260 0.777240 O
-0.049730 0.270960 0.743790 O
0.402160 0.739330 0.427850 O
0.313310 0.799200 0.307630 O
0.385740 0.787520 0.193530 O
0.522220 0.723010 0.237370 O
0.097840 0.239330 0.072150 O
0.186690 0.299200 0.192370 O
0.114260 0.287520 0.306470 O
-0.022220 0.223010 0.262630 O
0.597840 0.260670 0.572150 O
0.686690 0.200800 0.692370 O
0.614260 0.212480 0.806470 O
0.477780 0.276990 0.762630 O
0.902160 0.760670 0.927850 O
0.813310 0.700800 0.807630 O
0.885740 0.712480 0.693530 O
1.022220 0.776990 0.737370 O
0.495510 0.483050 0.073210 F
0.590130 0.493030 0.173680 F
0.612950 0.484920 0.071220 F
0.625680 0.059600 0.240340 F
0.567690 0.050760 0.320730 F
0.507480 -0.001280 0.210150 F
1.004490 0.983050 0.426790 F
0.909870 0.993030 0.326320 F
0.887050 0.984920 0.428780 F
0.874320 0.559600 0.259660 F
0.932310 0.550760 0.179270 F
0.992520 0.498720 0.289850 F
0.504490 0.516950 0.926790 F
0.409870 0.506970 0.826320 F
0.387050 0.515080 0.928780 F
0.374320 0.940400 0.759660 F
0.432310 0.949240 0.679270 F
0.492520 1.001280 0.789850 F
-0.004490 0.016950 0.573210 F
0.090130 0.006970 0.673680 F
0.112950 0.015080 0.571220 F
0.125680 0.440400 0.740340 F
0.067690 0.449240 0.820730 F
0.007480 0.501280 0.710150 F
0.368530 0.995960 0.416000 F
0.408300 1.017200 0.323000 F
0.488190 0.961720 0.426450 F
0.348570 0.555160 0.247900 F
0.409910 0.527800 0.171070 F
0.468110 0.500840 0.285800 F
0.131470 0.495960 0.084000 F
0.091700 0.517200 0.177000 F
0.011810 0.461720 0.073550 F
0.151430 0.055160 0.252100 F
0.090090 0.027800 0.328930 F
0.031890 0.000840 0.214200 F
0.631470 0.004040 0.584000 F
0.591700 -0.017200 0.677000 F
0.511810 0.038280 0.573550 F
0.651430 0.444840 0.752100 F
0.590090 0.472200 0.828930 F
0.531890 0.499160 0.714200 F
0.868530 0.504040 0.916000 F
0.908300 0.482800 0.823000 F
0.988190 0.538280 0.926450 F
0.848570 0.944840 0.747900 F
0.909910 0.972200 0.671070 F
0.968110 0.999160 0.785800 F
