C2 S2 N1 O4 F6
1.0
24.356903 0.000000 0.000000
0.000000 25.531940 0.000000
0.000000 0.000000 24.918164
C S N O F
2 2 1 4 6
direct
0.475518 0.579777 0.444405 C
0.528395 0.419214 0.555744 C
0.459644 0.511379 0.459053 S
0.537750 0.488205 0.537945 S
0.516839 0.489507 0.478218 N
0.447401 0.489361 0.407746 O
0.417177 0.513386 0.498452 O
0.506660 0.516881 0.576432 O
0.596054 0.494033 0.537530 O
0.490852 0.605058 0.488687 F
0.515412 0.583672 0.408737 F
0.431324 0.603769 0.424967 F
0.547094 0.411007 0.605119 F
0.556105 0.388391 0.522699 F
0.476269 0.405677 0.553846 F
