%mem=50GB
%nproc=16
#P uLC-wHPBE/6-31G iop(3/107=0267000000, 3/108=0267000000) scf=(conver=6,fermi,ndamp=35,noincfock,novaracc,vshift=500,xqc)

H6 C5

1 2
C 0.000000 0.895213 -0.933453
C 0.000000 1.131613 0.424372
C 0.000000 -0.000000 1.240919
C -0.000000 -1.131613 0.424372
C -0.000000 -0.895213 -0.933453
H -0.000000 0.000000 -1.720797
H 0.000000 1.620085 -1.742217
H 0.000000 2.160007 0.773055
H 0.000000 -0.000000 2.322589
H -0.000000 -2.160007 0.773055
H -0.000000 -1.620085 -1.742217



