Conventional_cell                       
   1.00000000000000     
    -4.1980880970862700   -4.1980880970862700    0.0000000000000000
     0.0000000000000000   -4.1980880970862700    4.1980880970862700
    -4.1980880970862700    0.0000000000000000    4.1980880970862700
   Co   Fe   O 
     2     4     8
Direct
  0.6250000000000000  0.1250000000000000  0.1250000000000000
  0.3750000000000000  0.8750000000000000  0.8750000000000000
  0.5000000000000000  0.5000000000000000  0.5000000000000000
  0.0000000000000000  0.5000000000000000  0.0000000000000000
  0.0000000000000000  0.0000000000000000  0.5000000000000000
  0.0000000000000000  0.5000000000000000  0.5000000000000000
  0.2344935882831081  0.2551688039056330  0.2551688039056330
  0.7551688039056330  0.2551688039056330  0.7344935882831081
  0.7551688039056330  0.7344935882831081  0.2551688039056330
  0.7551688039056330  0.2551688039056330  0.2551688039056330
  0.7655064117168919  0.7448311960943670  0.7448311960943670
  0.2448311960943670  0.7448311960943670  0.2655064117168919
  0.2448311960943670  0.2655064117168919  0.7448311960943670
  0.2448311960943670  0.7448311960943670  0.7448311960943670
 
  0.00000000E+00  0.00000000E+00  0.00000000E+00
  0.00000000E+00  0.00000000E+00  0.00000000E+00
  0.00000000E+00  0.00000000E+00  0.00000000E+00
  0.00000000E+00  0.00000000E+00  0.00000000E+00
  0.00000000E+00  0.00000000E+00  0.00000000E+00
  0.00000000E+00  0.00000000E+00  0.00000000E+00
  0.00000000E+00  0.00000000E+00  0.00000000E+00
  0.00000000E+00  0.00000000E+00  0.00000000E+00
  0.00000000E+00  0.00000000E+00  0.00000000E+00
  0.00000000E+00  0.00000000E+00  0.00000000E+00
  0.00000000E+00  0.00000000E+00  0.00000000E+00
  0.00000000E+00  0.00000000E+00  0.00000000E+00
  0.00000000E+00  0.00000000E+00  0.00000000E+00
  0.00000000E+00  0.00000000E+00  0.00000000E+00
