Conventional_cell                       
   1.00000000000000     
     8.3961761941725346    0.0000000000000000    0.0000000000000000
     0.0000000000000000    8.3961761941725346    0.0000000000000000
     0.0000000000000000    0.0000000000000000    8.3961761941725346
   Co   Fe   O 
     8    16    32
Direct
  0.1250000000000000  0.1250000000000000  0.1250000000000000
  0.1250000000000000  0.6250000000000000  0.6250000000000000
  0.6250000000000000  0.1250000000000000  0.6250000000000000
  0.6250000000000000  0.6250000000000000  0.1250000000000000
  0.8750000000000000  0.8750000000000000  0.8750000000000000
  0.3750000000000000  0.8750000000000000  0.3750000000000000
  0.8750000000000000  0.3750000000000000  0.3750000000000000
  0.3750000000000000  0.3750000000000000  0.8750000000000000
  0.5000000000000000  0.5000000000000000  0.5000000000000000
  0.5000000000000000  0.0000000000000000  0.0000000000000000
  0.0000000000000000  0.5000000000000000  0.0000000000000000
  0.0000000000000000  0.0000000000000000  0.5000000000000000
  0.5000000000000000  0.7500000000000000  0.7500000000000000
  0.5000000000000000  0.2500000000000000  0.2500000000000000
  0.0000000000000000  0.7500000000000000  0.2500000000000000
  0.0000000000000000  0.2500000000000000  0.7500000000000000
  0.7500000000000000  0.5000000000000000  0.7500000000000000
  0.7500000000000000  0.0000000000000000  0.2500000000000000
  0.2500000000000000  0.5000000000000000  0.2500000000000000
  0.2500000000000000  0.0000000000000000  0.7500000000000000
  0.7500000000000000  0.7500000000000000  0.5000000000000000
  0.7500000000000000  0.2500000000000000  0.0000000000000000
  0.2500000000000000  0.7500000000000000  0.0000000000000000
  0.2500000000000000  0.2500000000000000  0.5000000000000000
  0.2551688039056330  0.2551688039056330  0.2551688039056330
  0.2551688039056330  0.7551688039056330  0.7551688039056330
  0.7551688039056330  0.2551688039056330  0.7551688039056330
  0.7551688039056330  0.7551688039056330  0.2551688039056330
  0.2551688039056330  0.9948311960943670  0.9948311960943670
  0.2551688039056330  0.4948311960943670  0.4948311960943670
  0.7551688039056330  0.9948311960943670  0.4948311960943670
  0.7551688039056330  0.4948311960943670  0.9948311960943670
  0.9948311960943670  0.2551688039056330  0.9948311960943670
  0.9948311960943670  0.7551688039056330  0.4948311960943670
  0.4948311960943670  0.2551688039056330  0.4948311960943670
  0.4948311960943670  0.7551688039056330  0.9948311960943670
  0.9948311960943670  0.9948311960943670  0.2551688039056330
  0.9948311960943670  0.4948311960943670  0.7551688039056330
  0.4948311960943670  0.9948311960943670  0.7551688039056330
  0.4948311960943670  0.4948311960943670  0.2551688039056330
  0.7448311960943670  0.7448311960943670  0.7448311960943670
  0.2448311960943670  0.7448311960943670  0.2448311960943670
  0.7448311960943670  0.2448311960943670  0.2448311960943670
  0.2448311960943670  0.2448311960943670  0.7448311960943670
  0.7448311960943670  0.5051688039056330  0.5051688039056330
  0.2448311960943670  0.5051688039056330  0.0051688039056330
  0.7448311960943670  0.0051688039056330  0.0051688039056330
  0.2448311960943670  0.0051688039056330  0.5051688039056330
  0.5051688039056330  0.7448311960943670  0.5051688039056330
  0.0051688039056330  0.7448311960943670  0.0051688039056330
  0.5051688039056330  0.2448311960943670  0.0051688039056330
  0.0051688039056330  0.2448311960943670  0.5051688039056330
  0.5051688039056330  0.5051688039056330  0.7448311960943670
  0.0051688039056330  0.5051688039056330  0.2448311960943670
  0.5051688039056330  0.0051688039056330  0.2448311960943670
  0.0051688039056330  0.0051688039056330  0.7448311960943670
 
  0.00000000E+00  0.00000000E+00  0.00000000E+00
  0.00000000E+00  0.00000000E+00  0.00000000E+00
  0.00000000E+00  0.00000000E+00  0.00000000E+00
  0.00000000E+00  0.00000000E+00  0.00000000E+00
  0.00000000E+00  0.00000000E+00  0.00000000E+00
  0.00000000E+00  0.00000000E+00  0.00000000E+00
  0.00000000E+00  0.00000000E+00  0.00000000E+00
  0.00000000E+00  0.00000000E+00  0.00000000E+00
  0.00000000E+00  0.00000000E+00  0.00000000E+00
  0.00000000E+00  0.00000000E+00  0.00000000E+00
  0.00000000E+00  0.00000000E+00  0.00000000E+00
  0.00000000E+00  0.00000000E+00  0.00000000E+00
  0.00000000E+00  0.00000000E+00  0.00000000E+00
  0.00000000E+00  0.00000000E+00  0.00000000E+00
  0.00000000E+00  0.00000000E+00  0.00000000E+00
  0.00000000E+00  0.00000000E+00  0.00000000E+00
  0.00000000E+00  0.00000000E+00  0.00000000E+00
  0.00000000E+00  0.00000000E+00  0.00000000E+00
  0.00000000E+00  0.00000000E+00  0.00000000E+00
  0.00000000E+00  0.00000000E+00  0.00000000E+00
  0.00000000E+00  0.00000000E+00  0.00000000E+00
  0.00000000E+00  0.00000000E+00  0.00000000E+00
  0.00000000E+00  0.00000000E+00  0.00000000E+00
  0.00000000E+00  0.00000000E+00  0.00000000E+00
  0.00000000E+00  0.00000000E+00  0.00000000E+00
  0.00000000E+00  0.00000000E+00  0.00000000E+00
  0.00000000E+00  0.00000000E+00  0.00000000E+00
  0.00000000E+00  0.00000000E+00  0.00000000E+00
  0.00000000E+00  0.00000000E+00  0.00000000E+00
  0.00000000E+00  0.00000000E+00  0.00000000E+00
  0.00000000E+00  0.00000000E+00  0.00000000E+00
  0.00000000E+00  0.00000000E+00  0.00000000E+00
  0.00000000E+00  0.00000000E+00  0.00000000E+00
  0.00000000E+00  0.00000000E+00  0.00000000E+00
  0.00000000E+00  0.00000000E+00  0.00000000E+00
  0.00000000E+00  0.00000000E+00  0.00000000E+00
  0.00000000E+00  0.00000000E+00  0.00000000E+00
  0.00000000E+00  0.00000000E+00  0.00000000E+00
  0.00000000E+00  0.00000000E+00  0.00000000E+00
  0.00000000E+00  0.00000000E+00  0.00000000E+00
  0.00000000E+00  0.00000000E+00  0.00000000E+00
  0.00000000E+00  0.00000000E+00  0.00000000E+00
  0.00000000E+00  0.00000000E+00  0.00000000E+00
  0.00000000E+00  0.00000000E+00  0.00000000E+00
  0.00000000E+00  0.00000000E+00  0.00000000E+00
  0.00000000E+00  0.00000000E+00  0.00000000E+00
  0.00000000E+00  0.00000000E+00  0.00000000E+00
  0.00000000E+00  0.00000000E+00  0.00000000E+00
  0.00000000E+00  0.00000000E+00  0.00000000E+00
  0.00000000E+00  0.00000000E+00  0.00000000E+00
  0.00000000E+00  0.00000000E+00  0.00000000E+00
  0.00000000E+00  0.00000000E+00  0.00000000E+00
  0.00000000E+00  0.00000000E+00  0.00000000E+00
  0.00000000E+00  0.00000000E+00  0.00000000E+00
  0.00000000E+00  0.00000000E+00  0.00000000E+00
  0.00000000E+00  0.00000000E+00  0.00000000E+00
