B4 H76 C68 S4 N4 O8 F16                 
   1.00000000000000     
    10.3373172717528075    0.0000000000000000   -0.5897435357898653
     0.0000000000000000    6.8479303468948993    0.0000000000000000
     0.0103120132190445    0.0000000000000000   24.5805395586486455
   B    H    C    S    N    O    F 
     4    76    68     4     4     8    16
Direct
  0.9312721372351103  0.1787254864008624  0.6343667644762299
  0.5687278627648897  0.6787254864008625  0.8656332355237701
  0.0687278627648898  0.8212745135991375  0.3656332355237701
  0.4312721372351102  0.3212745135991376  0.1343667644762299
  0.6389840394321389  0.2926988783543981  0.3435163855397665
  0.8721758347284622  0.3569964470191065  0.3474038886860457
  0.9983139476244731  0.3791809905773105  0.4358504402636494
  0.8828434447369741  0.3450977198958652  0.5227704898014458
  0.3675770511462356  0.0384342002115074  0.3829910615640730
  0.5097702571545053  0.0954118343190965  0.3513381778222830
  0.2364723645414844  0.1531414999694177  0.4254676656323340
  0.3063668324235941  0.2402031744122674  0.3090124270349688
  0.2893667388798465  0.3909463786423636  0.3672619811337791
  0.4320552242720427  0.2695263652228455  0.6122736724519788
  0.1052631242622796  0.1279933083249394  0.5037386884086876
  0.1985120636933832  0.1863841919152297  0.5978555788953905
  0.3282886241292049  0.6928706899192429  0.3118510130953908
  0.3224366730969622  0.5204446737130597  0.2568196959840023
  0.5482162583817238  0.6006061964013059  0.2367995554741564
  0.4390754257358088  0.8022118388843160  0.2281785807052894
  0.7252423716987195  0.8166406143896477  0.2482937359237987
  0.7268076906557912  0.9859438379394970  0.3030077353251394
  0.6229094968998922  0.0293290862778843  0.2427788468657250
  0.8610159605678611  0.7926988783543980  0.1564836144602335
  0.6278241652715378  0.8569964470191066  0.1525961113139544
  0.5016860523755269  0.8791809905773106  0.0641495597363505
  0.6171565552630259  0.8450977198958651  0.9772295101985542
  0.1324229488537644  0.5384342002115075  0.1170089384359271
  0.9902297428454947  0.5954118343190965  0.1486618221777170
  0.2635276354585156  0.6531414999694176  0.0745323343676660
  0.1936331675764059  0.7402031744122674  0.1909875729650312
  0.2106332611201535  0.8909463786423637  0.1327380188662209
  0.0679447757279573  0.7695263652228456  0.8877263275480212
  0.3947368757377204  0.6279933083249395  0.9962613115913124
  0.3014879363066168  0.6863841919152298  0.9021444211046095
  0.1717113758707951  0.1928706899192430  0.1881489869046093
  0.1775633269030379  0.0204446737130597  0.2431803040159976
  0.9517837416182762  0.1006061964013129  0.2632004445258436
  0.0609245742641913  0.3022118388843160  0.2718214192947107
  0.7747576283012805  0.3166406143896477  0.2517062640762013
  0.7731923093442088  0.4859438379394970  0.1969922646748607
  0.8770905031001078  0.5293290862778842  0.2572211531342750
  0.3610159605678611  0.7073011216456020  0.6564836144602335
  0.1278241652715378  0.6430035529808934  0.6525961113139545
  0.0016860523755269  0.6208190094226894  0.5641495597363505
  0.1171565552630260  0.6549022801041349  0.4772295101985543
  0.6324229488537645  0.9615657997884925  0.6170089384359271
  0.4902297428454948  0.9045881656809035  0.6486618221777170
  0.7635276354585157  0.8468585000305824  0.5745323343676659
  0.6936331675764059  0.7597968255877326  0.6909875729650312
  0.7106332611201535  0.6090536213576363  0.6327380188662209
  0.5679447757279573  0.7304736347771544  0.3877263275480212
  0.8947368757377204  0.8720066916750605  0.4962613115913124
  0.8014879363066167  0.8136158080847702  0.4021444211046095
  0.6717113758707951  0.3071293100807569  0.6881489869046092
  0.6775633269030378  0.4795553262869403  0.7431803040159977
  0.4517837416182761  0.3993938035986871  0.7632004445258436
  0.5609245742641913  0.1977881611156840  0.7718214192947106
  0.2747576283012805  0.1833593856103523  0.7517062640762012
  0.2731923093442088  0.0140561620605030  0.6969922646748608
  0.3770905031001078  0.9706709137221158  0.7572211531342750
  0.1389840394321389  0.2073011216456020  0.8435163855397665
  0.3721758347284621  0.1430035529808935  0.8474038886860455
  0.4983139476244732  0.1208190094226895  0.9358504402636495
  0.3828434447369740  0.1549022801041348  0.0227704898014457
  0.8675770511462355  0.4615657997884926  0.8829910615640729
  0.0097702571545052  0.4045881656809036  0.8513381778222830
  0.7364723645414843  0.3468585000305823  0.9254676656323341
  0.8063668324235941  0.2597968255877326  0.8090124270349688
  0.7893667388798465  0.1090536213576364  0.8672619811337791
  0.9320552242720427  0.2304736347771545  0.1122736724519788
  0.6052631242622796  0.3720066916750606  0.0037386884086876
  0.6985120636933833  0.3136158080847703  0.0978555788953905
  0.8282886241292049  0.8071293100807571  0.8118510130953908
  0.8224366730969622  0.9795553262869403  0.7568196959840023
  0.0482162583817239  0.8993938035986941  0.7367995554741564
  0.9390754257358087  0.6977881611156840  0.7281785807052894
  0.2252423716987124  0.6833593856103523  0.7482937359237988
  0.2268076906557912  0.5140561620605030  0.8030077353251392
  0.1229094968998922  0.4706709137221157  0.7427788468657250
  0.6925270662874382  0.2950577582407487  0.3827433212602677
  0.6256789381766310  0.2700305998919977  0.4307966420853536
  0.8238019060089455  0.3351041948823139  0.3850578531701692
  0.6979980846246986  0.2960386705111397  0.4812830688132045
  0.8949018220966565  0.3506910563690539  0.4351138503069731
  0.8316397741444148  0.3329779017422614  0.4829673828950676
  0.4170865603453426  0.2173086164378414  0.4724523837309530
  0.4345189017694521  0.1580799596655279  0.3753213005952931
  0.4688621320156300  0.2495689158746285  0.5269090106442377
  0.2829337757391681  0.1763786078292199  0.4656412664348571
  0.3604966712994294  0.3153951395781113  0.3429072168283469
  0.3898387730023599  0.2421051989289286  0.5713038628589991
  0.2072073646123639  0.1636583742195919  0.5102705668895937
  0.2597178269397884  0.1956939082431723  0.5633973650050877
  0.3867739307325886  0.5937574066339474  0.2878081241419287
  0.4876930159278778  0.7039310539642134  0.2586573902838926
  0.6647313506535407  0.9173352216429460  0.2709393175077151
  0.8074729337125618  0.7950577582407486  0.1172566787397323
  0.8743210618233690  0.7700305998919976  0.0692033579146464
  0.6761980939910545  0.8351041948823139  0.1149421468298308
  0.8020019153753014  0.7960386705111396  0.0187169311867955
  0.6050981779033435  0.8506910563690540  0.0648861496930269
  0.6683602258555852  0.8329779017422614  0.0170326171049324
  0.0829134396546645  0.7173086164378414  0.0275476162690470
  0.0654810982305479  0.6580799596655279  0.1246786994047069
  0.0311378679843700  0.7495689158746286  0.9730909893557623
  0.2170662242608319  0.6763786078292199  0.0343587335651428
  0.1395033287005706  0.8153951395781113  0.1570927831716531
  0.1101612269976401  0.7421051989289287  0.9286961371410009
  0.2927926353876361  0.6636583742195918  0.9897294331104063
  0.2402821730602116  0.6956939082431723  0.9366026349949123
  0.1132260692674114  0.0937574066339473  0.2121918758580713
  0.0123069840721222  0.2039310539642133  0.2413426097161074
  0.8352686493464593  0.4173352216429459  0.2290606824922849
  0.3074729337125618  0.7049422417592514  0.6172566787397323
  0.3743210618233689  0.7299694001080024  0.5692033579146464
  0.1761980939910544  0.6648958051176861  0.6149421468298308
  0.3020019153753013  0.7039613294888604  0.5187169311867955
  0.1050981779033435  0.6493089436309460  0.5648861496930270
  0.1683602258555851  0.6670220982577386  0.5170326171049323
  0.5829134396546574  0.7826913835621586  0.5275476162690470
  0.5654810982305479  0.8419200403344721  0.6246786994047069
  0.5311378679843699  0.7504310841253714  0.4730909893557622
  0.7170662242608319  0.8236213921707801  0.5343587335651429
  0.6395033287005706  0.6846048604218887  0.6570927831716531
  0.6101612269976401  0.7578948010710713  0.4286961371409937
  0.7927926353876361  0.8363416257804082  0.4897294331104063
  0.7402821730602116  0.8043060917568277  0.4366026349949123
  0.6132260692674113  0.4062425933660527  0.7121918758580713
  0.5123069840721223  0.2960689460357867  0.7413426097161074
  0.3352686493464594  0.0826647783570541  0.7290606824922850
  0.1925270662874382  0.2049422417592513  0.8827433212602677
  0.1256789381766311  0.2299694001080023  0.9307966420853536
  0.3238019060089457  0.1648958051176861  0.8850578531701692
  0.1979980846246987  0.2039613294888603  0.9812830688132045
  0.3949018220966565  0.1493089436309461  0.9351138503069730
  0.3316397741444149  0.1670220982577386  0.9829673828950677
  0.9170865603453426  0.2826913835621586  0.9724523837309530
  0.9345189017694521  0.3419200403344721  0.8753213005952931
  0.9688621320156301  0.2504310841253714  0.0269090106442378
  0.7829337757391681  0.3236213921707802  0.9656412664348571
  0.8604966712994294  0.1846048604218887  0.8429072168283469
  0.8898387730023599  0.2578948010710713  0.0713038628590063
  0.7072073646123639  0.3363416257804081  0.0102705668895937
  0.7597178269397884  0.3043060917568277  0.0633973650050877
  0.8867739307325887  0.9062425933660526  0.7878081241419287
  0.9876930159278777  0.7960689460357866  0.7586573902838926
  0.1647313506535406  0.5826647783570540  0.7709393175077150
  0.6310852760240614  0.2823589788271451  0.5435971824200140
  0.8689147239759386  0.7823589788271450  0.9564028175799860
  0.3689147239759385  0.7176410211728550  0.4564028175799861
  0.1310852760240614  0.2176410211728549  0.0435971824200139
  0.4945833465740083  0.2208583011761772  0.4282174698758743
  0.0054166534259917  0.7208583011761773  0.0717825301241257
  0.5054166534259917  0.7791416988238227  0.5717825301241257
  0.9945833465740083  0.2791416988238227  0.9282174698758743
  0.4498149640527031  0.4510050055727304  0.3227741883916410
  0.5661356247780494  0.8145083489943963  0.2970588273689123
  0.0501850359472969  0.9510050055727304  0.1772258116083590
  0.9338643752219506  0.3145083489943962  0.2029411726310878
  0.5501850359472970  0.5489949944272696  0.6772258116083590
  0.4338643752219507  0.1854916510056038  0.7029411726310878
  0.9498149640527030  0.0489949944272696  0.8227741883916410
  0.0661356247780493  0.6854916510056037  0.7970588273689122
  0.9620157549699606  0.0862564776342829  0.5849484346270772
  0.0424825862743424  0.1886719442823084  0.6701986721512406
  0.8320906727355677  0.0695844260573215  0.6583448407020415
  0.8849993454534292  0.3709181837852060  0.6223816952350050
  0.5379842450300394  0.5862564776342829  0.9150515653729228
  0.4575174137256576  0.6886719442823084  0.8298013278487594
  0.6679093272644323  0.5695844260573214  0.8416551592979585
  0.6150006545465708  0.8709181837852060  0.8776183047649950
  0.0379842450300394  0.9137435223657171  0.4150515653729228
  0.9575174137256577  0.8113280557176916  0.3298013278487593
  0.1679093272644323  0.9304155739426786  0.3416551592979585
  0.1150006545465709  0.6290818162147940  0.3776183047649950
  0.4620157549699606  0.4137435223657171  0.0849484346270772
  0.5424825862743423  0.3113280557176916  0.1701986721512406
  0.3320906727355677  0.4304155739426785  0.1583448407020416
  0.3849993454534291  0.1290818162147940  0.1223816952350050
 
  0.00000000E+00  0.00000000E+00  0.00000000E+00
  0.00000000E+00  0.00000000E+00  0.00000000E+00
  0.00000000E+00  0.00000000E+00  0.00000000E+00
  0.00000000E+00  0.00000000E+00  0.00000000E+00
  0.00000000E+00  0.00000000E+00  0.00000000E+00
  0.00000000E+00  0.00000000E+00  0.00000000E+00
  0.00000000E+00  0.00000000E+00  0.00000000E+00
  0.00000000E+00  0.00000000E+00  0.00000000E+00
  0.00000000E+00  0.00000000E+00  0.00000000E+00
  0.00000000E+00  0.00000000E+00  0.00000000E+00
  0.00000000E+00  0.00000000E+00  0.00000000E+00
  0.00000000E+00  0.00000000E+00  0.00000000E+00
  0.00000000E+00  0.00000000E+00  0.00000000E+00
  0.00000000E+00  0.00000000E+00  0.00000000E+00
  0.00000000E+00  0.00000000E+00  0.00000000E+00
  0.00000000E+00  0.00000000E+00  0.00000000E+00
  0.00000000E+00  0.00000000E+00  0.00000000E+00
  0.00000000E+00  0.00000000E+00  0.00000000E+00
  0.00000000E+00  0.00000000E+00  0.00000000E+00
  0.00000000E+00  0.00000000E+00  0.00000000E+00
  0.00000000E+00  0.00000000E+00  0.00000000E+00
  0.00000000E+00  0.00000000E+00  0.00000000E+00
  0.00000000E+00  0.00000000E+00  0.00000000E+00
  0.00000000E+00  0.00000000E+00  0.00000000E+00
  0.00000000E+00  0.00000000E+00  0.00000000E+00
  0.00000000E+00  0.00000000E+00  0.00000000E+00
  0.00000000E+00  0.00000000E+00  0.00000000E+00
  0.00000000E+00  0.00000000E+00  0.00000000E+00
  0.00000000E+00  0.00000000E+00  0.00000000E+00
  0.00000000E+00  0.00000000E+00  0.00000000E+00
  0.00000000E+00  0.00000000E+00  0.00000000E+00
  0.00000000E+00  0.00000000E+00  0.00000000E+00
  0.00000000E+00  0.00000000E+00  0.00000000E+00
  0.00000000E+00  0.00000000E+00  0.00000000E+00
  0.00000000E+00  0.00000000E+00  0.00000000E+00
  0.00000000E+00  0.00000000E+00  0.00000000E+00
  0.00000000E+00  0.00000000E+00  0.00000000E+00
  0.00000000E+00  0.00000000E+00  0.00000000E+00
  0.00000000E+00  0.00000000E+00  0.00000000E+00
  0.00000000E+00  0.00000000E+00  0.00000000E+00
  0.00000000E+00  0.00000000E+00  0.00000000E+00
  0.00000000E+00  0.00000000E+00  0.00000000E+00
  0.00000000E+00  0.00000000E+00  0.00000000E+00
  0.00000000E+00  0.00000000E+00  0.00000000E+00
  0.00000000E+00  0.00000000E+00  0.00000000E+00
  0.00000000E+00  0.00000000E+00  0.00000000E+00
  0.00000000E+00  0.00000000E+00  0.00000000E+00
  0.00000000E+00  0.00000000E+00  0.00000000E+00
  0.00000000E+00  0.00000000E+00  0.00000000E+00
  0.00000000E+00  0.00000000E+00  0.00000000E+00
  0.00000000E+00  0.00000000E+00  0.00000000E+00
  0.00000000E+00  0.00000000E+00  0.00000000E+00
  0.00000000E+00  0.00000000E+00  0.00000000E+00
  0.00000000E+00  0.00000000E+00  0.00000000E+00
  0.00000000E+00  0.00000000E+00  0.00000000E+00
  0.00000000E+00  0.00000000E+00  0.00000000E+00
  0.00000000E+00  0.00000000E+00  0.00000000E+00
  0.00000000E+00  0.00000000E+00  0.00000000E+00
  0.00000000E+00  0.00000000E+00  0.00000000E+00
  0.00000000E+00  0.00000000E+00  0.00000000E+00
  0.00000000E+00  0.00000000E+00  0.00000000E+00
  0.00000000E+00  0.00000000E+00  0.00000000E+00
  0.00000000E+00  0.00000000E+00  0.00000000E+00
  0.00000000E+00  0.00000000E+00  0.00000000E+00
  0.00000000E+00  0.00000000E+00  0.00000000E+00
  0.00000000E+00  0.00000000E+00  0.00000000E+00
  0.00000000E+00  0.00000000E+00  0.00000000E+00
  0.00000000E+00  0.00000000E+00  0.00000000E+00
  0.00000000E+00  0.00000000E+00  0.00000000E+00
  0.00000000E+00  0.00000000E+00  0.00000000E+00
  0.00000000E+00  0.00000000E+00  0.00000000E+00
  0.00000000E+00  0.00000000E+00  0.00000000E+00
  0.00000000E+00  0.00000000E+00  0.00000000E+00
  0.00000000E+00  0.00000000E+00  0.00000000E+00
  0.00000000E+00  0.00000000E+00  0.00000000E+00
  0.00000000E+00  0.00000000E+00  0.00000000E+00
  0.00000000E+00  0.00000000E+00  0.00000000E+00
  0.00000000E+00  0.00000000E+00  0.00000000E+00
  0.00000000E+00  0.00000000E+00  0.00000000E+00
  0.00000000E+00  0.00000000E+00  0.00000000E+00
  0.00000000E+00  0.00000000E+00  0.00000000E+00
  0.00000000E+00  0.00000000E+00  0.00000000E+00
  0.00000000E+00  0.00000000E+00  0.00000000E+00
  0.00000000E+00  0.00000000E+00  0.00000000E+00
  0.00000000E+00  0.00000000E+00  0.00000000E+00
  0.00000000E+00  0.00000000E+00  0.00000000E+00
  0.00000000E+00  0.00000000E+00  0.00000000E+00
  0.00000000E+00  0.00000000E+00  0.00000000E+00
  0.00000000E+00  0.00000000E+00  0.00000000E+00
  0.00000000E+00  0.00000000E+00  0.00000000E+00
  0.00000000E+00  0.00000000E+00  0.00000000E+00
  0.00000000E+00  0.00000000E+00  0.00000000E+00
  0.00000000E+00  0.00000000E+00  0.00000000E+00
  0.00000000E+00  0.00000000E+00  0.00000000E+00
  0.00000000E+00  0.00000000E+00  0.00000000E+00
  0.00000000E+00  0.00000000E+00  0.00000000E+00
  0.00000000E+00  0.00000000E+00  0.00000000E+00
  0.00000000E+00  0.00000000E+00  0.00000000E+00
  0.00000000E+00  0.00000000E+00  0.00000000E+00
  0.00000000E+00  0.00000000E+00  0.00000000E+00
  0.00000000E+00  0.00000000E+00  0.00000000E+00
  0.00000000E+00  0.00000000E+00  0.00000000E+00
  0.00000000E+00  0.00000000E+00  0.00000000E+00
  0.00000000E+00  0.00000000E+00  0.00000000E+00
  0.00000000E+00  0.00000000E+00  0.00000000E+00
  0.00000000E+00  0.00000000E+00  0.00000000E+00
  0.00000000E+00  0.00000000E+00  0.00000000E+00
  0.00000000E+00  0.00000000E+00  0.00000000E+00
  0.00000000E+00  0.00000000E+00  0.00000000E+00
  0.00000000E+00  0.00000000E+00  0.00000000E+00
  0.00000000E+00  0.00000000E+00  0.00000000E+00
  0.00000000E+00  0.00000000E+00  0.00000000E+00
  0.00000000E+00  0.00000000E+00  0.00000000E+00
  0.00000000E+00  0.00000000E+00  0.00000000E+00
  0.00000000E+00  0.00000000E+00  0.00000000E+00
  0.00000000E+00  0.00000000E+00  0.00000000E+00
  0.00000000E+00  0.00000000E+00  0.00000000E+00
  0.00000000E+00  0.00000000E+00  0.00000000E+00
  0.00000000E+00  0.00000000E+00  0.00000000E+00
  0.00000000E+00  0.00000000E+00  0.00000000E+00
  0.00000000E+00  0.00000000E+00  0.00000000E+00
  0.00000000E+00  0.00000000E+00  0.00000000E+00
  0.00000000E+00  0.00000000E+00  0.00000000E+00
  0.00000000E+00  0.00000000E+00  0.00000000E+00
  0.00000000E+00  0.00000000E+00  0.00000000E+00
  0.00000000E+00  0.00000000E+00  0.00000000E+00
  0.00000000E+00  0.00000000E+00  0.00000000E+00
  0.00000000E+00  0.00000000E+00  0.00000000E+00
  0.00000000E+00  0.00000000E+00  0.00000000E+00
  0.00000000E+00  0.00000000E+00  0.00000000E+00
  0.00000000E+00  0.00000000E+00  0.00000000E+00
  0.00000000E+00  0.00000000E+00  0.00000000E+00
  0.00000000E+00  0.00000000E+00  0.00000000E+00
  0.00000000E+00  0.00000000E+00  0.00000000E+00
  0.00000000E+00  0.00000000E+00  0.00000000E+00
  0.00000000E+00  0.00000000E+00  0.00000000E+00
  0.00000000E+00  0.00000000E+00  0.00000000E+00
  0.00000000E+00  0.00000000E+00  0.00000000E+00
  0.00000000E+00  0.00000000E+00  0.00000000E+00
  0.00000000E+00  0.00000000E+00  0.00000000E+00
  0.00000000E+00  0.00000000E+00  0.00000000E+00
  0.00000000E+00  0.00000000E+00  0.00000000E+00
  0.00000000E+00  0.00000000E+00  0.00000000E+00
  0.00000000E+00  0.00000000E+00  0.00000000E+00
  0.00000000E+00  0.00000000E+00  0.00000000E+00
  0.00000000E+00  0.00000000E+00  0.00000000E+00
  0.00000000E+00  0.00000000E+00  0.00000000E+00
  0.00000000E+00  0.00000000E+00  0.00000000E+00
  0.00000000E+00  0.00000000E+00  0.00000000E+00
  0.00000000E+00  0.00000000E+00  0.00000000E+00
  0.00000000E+00  0.00000000E+00  0.00000000E+00
  0.00000000E+00  0.00000000E+00  0.00000000E+00
  0.00000000E+00  0.00000000E+00  0.00000000E+00
  0.00000000E+00  0.00000000E+00  0.00000000E+00
  0.00000000E+00  0.00000000E+00  0.00000000E+00
  0.00000000E+00  0.00000000E+00  0.00000000E+00
  0.00000000E+00  0.00000000E+00  0.00000000E+00
  0.00000000E+00  0.00000000E+00  0.00000000E+00
  0.00000000E+00  0.00000000E+00  0.00000000E+00
  0.00000000E+00  0.00000000E+00  0.00000000E+00
  0.00000000E+00  0.00000000E+00  0.00000000E+00
  0.00000000E+00  0.00000000E+00  0.00000000E+00
  0.00000000E+00  0.00000000E+00  0.00000000E+00
  0.00000000E+00  0.00000000E+00  0.00000000E+00
  0.00000000E+00  0.00000000E+00  0.00000000E+00
  0.00000000E+00  0.00000000E+00  0.00000000E+00
  0.00000000E+00  0.00000000E+00  0.00000000E+00
  0.00000000E+00  0.00000000E+00  0.00000000E+00
  0.00000000E+00  0.00000000E+00  0.00000000E+00
  0.00000000E+00  0.00000000E+00  0.00000000E+00
  0.00000000E+00  0.00000000E+00  0.00000000E+00
  0.00000000E+00  0.00000000E+00  0.00000000E+00
  0.00000000E+00  0.00000000E+00  0.00000000E+00
  0.00000000E+00  0.00000000E+00  0.00000000E+00
  0.00000000E+00  0.00000000E+00  0.00000000E+00
  0.00000000E+00  0.00000000E+00  0.00000000E+00
  0.00000000E+00  0.00000000E+00  0.00000000E+00
  0.00000000E+00  0.00000000E+00  0.00000000E+00
  0.00000000E+00  0.00000000E+00  0.00000000E+00
  0.00000000E+00  0.00000000E+00  0.00000000E+00
