B4 H76 C68 S4 N4 O8 F16
1.0
10.337317 0.000000 -0.589744
0.000000 6.847930 0.000000
0.010312 0.000000 24.580540
B C F H N O S
4 68 16 76 4 8 4
direct
0.931272 0.178725 0.634367 B
0.568728 0.678725 0.865633 B
0.068728 0.821275 0.365633 B
0.431272 0.321275 0.134367 B
0.692527 0.295058 0.382743 C
0.625679 0.270031 0.430797 C
0.823802 0.335104 0.385058 C
0.697998 0.296039 0.481283 C
0.894902 0.350691 0.435114 C
0.831640 0.332978 0.482967 C
0.417087 0.217309 0.472452 C
0.434519 0.158080 0.375321 C
0.468862 0.249569 0.526909 C
0.282934 0.176379 0.465641 C
0.360497 0.315395 0.342907 C
0.389839 0.242105 0.571304 C
0.207207 0.163658 0.510271 C
0.259718 0.195694 0.563397 C
0.386774 0.593757 0.287808 C
0.487693 0.703931 0.258657 C
0.664731 0.917335 0.270939 C
0.807473 0.795058 0.117257 C
0.874321 0.770031 0.069203 C
0.676198 0.835104 0.114942 C
0.802002 0.796039 0.018717 C
0.605098 0.850691 0.064886 C
0.668360 0.832978 0.017033 C
1.082913 0.717309 0.027548 C
1.065481 0.658080 0.124679 C
1.031138 0.749569 -0.026909 C
1.217066 0.676379 0.034359 C
1.139503 0.815395 0.157093 C
1.110161 0.742105 -0.071304 C
1.292793 0.663658 -0.010271 C
1.240282 0.695694 -0.063397 C
1.113226 1.093757 0.212192 C
1.012307 1.203931 0.241343 C
0.835269 1.417335 0.229061 C
0.307473 0.704942 0.617257 C
0.374321 0.729969 0.569203 C
0.176198 0.664896 0.614942 C
0.302002 0.703961 0.518717 C
0.105098 0.649309 0.564886 C
0.168360 0.667022 0.517033 C
0.582913 0.782691 0.527548 C
0.565481 0.841920 0.624679 C
0.531138 0.750431 0.473091 C
0.717066 0.823621 0.534359 C
0.639503 0.684605 0.657093 C
0.610161 0.757895 0.428696 C
0.792793 0.836342 0.489729 C
0.740282 0.804306 0.436603 C
0.613226 0.406243 0.712192 C
0.512307 0.296069 0.741343 C
0.335269 0.082665 0.729061 C
0.192527 0.204942 0.882743 C
0.125679 0.229969 0.930797 C
0.323802 0.164896 0.885058 C
0.197998 0.203961 0.981283 C
0.394902 0.149309 0.935114 C
0.331640 0.167022 0.982967 C
-0.082913 0.282691 0.972452 C
-0.065481 0.341920 0.875321 C
-0.031138 0.250431 1.026909 C
-0.217066 0.323621 0.965641 C
-0.139503 0.184605 0.842907 C
-0.110161 0.257895 1.071304 C
-0.292793 0.336342 1.010271 C
-0.240282 0.304306 1.063397 C
-0.113226 -0.093757 0.787808 C
-0.012307 -0.203931 0.758657 C
0.164731 -0.417335 0.770939 C
0.962016 0.086256 0.584948 F
1.042483 0.188672 0.670199 F
0.832091 0.069584 0.658345 F
0.884999 0.370918 0.622382 F
0.537984 0.586256 0.915052 F
0.457517 0.688672 0.829801 F
0.667909 0.569584 0.841655 F
0.615001 0.870918 0.877618 F
0.037984 0.913744 0.415052 F
-0.042483 0.811328 0.329801 F
0.167909 0.930416 0.341655 F
0.115001 0.629082 0.377618 F
0.462016 0.413744 0.084948 F
0.542483 0.311328 0.170199 F
0.332091 0.430416 0.158345 F
0.384999 0.129082 0.122382 F
0.638984 0.292699 0.343516 H
0.872176 0.356996 0.347404 H
0.998314 0.379181 0.435850 H
0.882843 0.345098 0.522770 H
0.367577 0.038434 0.382991 H
0.509770 0.095412 0.351338 H
0.236472 0.153141 0.425468 H
0.306367 0.240203 0.309012 H
0.289367 0.390946 0.367262 H
0.432055 0.269526 0.612274 H
0.105263 0.127993 0.503739 H
0.198512 0.186384 0.597856 H
0.328289 0.692871 0.311851 H
0.322437 0.520445 0.256820 H
0.548216 0.600606 0.236800 H
0.439075 0.802212 0.228179 H
0.725242 0.816641 0.248294 H
0.726808 0.985944 0.303008 H
0.622909 1.029329 0.242779 H
0.861016 0.792699 0.156484 H
0.627824 0.856996 0.152596 H
0.501686 0.879181 0.064150 H
0.617157 0.845098 -0.022770 H
1.132423 0.538434 0.117009 H
0.990230 0.595412 0.148662 H
1.263528 0.653141 0.074532 H
1.193633 0.740203 0.190988 H
1.210633 0.890946 0.132738 H
1.067945 0.769526 -0.112274 H
1.394737 0.627993 -0.003739 H
1.301488 0.686384 -0.097856 H
1.171711 1.192871 0.188149 H
1.177563 1.020445 0.243180 H
0.951784 1.100606 0.263200 H
1.060925 1.302212 0.271821 H
0.774758 1.316641 0.251706 H
0.773192 1.485944 0.196992 H
0.877091 1.529329 0.257221 H
0.361016 0.707301 0.656484 H
0.127824 0.643004 0.652596 H
0.001686 0.620819 0.564150 H
0.117157 0.654902 0.477230 H
0.632423 0.961566 0.617009 H
0.490230 0.904588 0.648662 H
0.763528 0.846859 0.574532 H
0.693633 0.759797 0.690988 H
0.710633 0.609054 0.632738 H
0.567945 0.730474 0.387726 H
0.894737 0.872007 0.496261 H
0.801488 0.813616 0.402144 H
0.671711 0.307129 0.688149 H
0.677563 0.479555 0.743180 H
0.451784 0.399394 0.763200 H
0.560925 0.197788 0.771821 H
0.274758 0.183359 0.751706 H
0.273192 0.014056 0.696992 H
0.377091 -0.029329 0.757221 H
0.138984 0.207301 0.843516 H
0.372176 0.143004 0.847404 H
0.498314 0.120819 0.935850 H
0.382843 0.154902 1.022770 H
-0.132423 0.461566 0.882991 H
0.009770 0.404588 0.851338 H
-0.263528 0.346859 0.925468 H
-0.193633 0.259797 0.809012 H
-0.210633 0.109054 0.867262 H
-0.067945 0.230474 1.112274 H
-0.394737 0.372007 1.003739 H
-0.301488 0.313616 1.097856 H
-0.171711 -0.192871 0.811851 H
-0.177563 -0.020445 0.756820 H
0.048216 -0.100606 0.736800 H
-0.060925 -0.302212 0.728179 H
0.225242 -0.316641 0.748294 H
0.226808 -0.485944 0.803008 H
0.122909 -0.529329 0.742779 H
0.494583 0.220858 0.428217 N
1.005417 0.720858 0.071783 N
0.505417 0.779142 0.571783 N
-0.005417 0.279142 0.928217 N
0.449815 0.451005 0.322774 O
0.566136 0.814508 0.297059 O
1.050185 0.951005 0.177226 O
0.933864 1.314508 0.202941 O
0.550185 0.548995 0.677226 O
0.433864 0.185492 0.702941 O
-0.050185 0.048995 0.822774 O
0.066136 -0.314508 0.797059 O
0.631085 0.282359 0.543597 S
0.868915 0.782359 -0.043597 S
0.368915 0.717641 0.456403 S
0.131085 0.217641 1.043597 S
