Ge2 H54 C44                             
1.000000
   8.76780300000000   0.00000000000000   1.58547700000000
   3.14635700000000   6.80679000000000   0.41005800000000
   0.00000000000000   0.00000000000000  17.16000000000000
Ge H C 
2 54 44 
Direct(100) [A2B54C44] 
   0.89190045916773   0.86059856926919   0.34741750522998  Ge    
   0.11302446077564   0.13972253250926   0.65171303528969  Ge    
   0.25672994605786   0.81248416339528   0.14503009462051  H     
   0.64535006197992   0.07785688592807   0.14501669735780  H     
   0.35460253575081   0.92337417770603   0.85485648627061  H     
   0.74330064578749   0.18720569265237   0.85469967236020  H     
   0.56310290941686   0.68554619914967   0.14587796903284  H     
   0.34029890048744   0.20505573402355   0.14551101272861  H     
   0.84875555907141   0.60951356294897   0.07291817654464  H     
   0.65975205937793   0.79502558286545   0.85443381863633  H     
   0.43639978675008   0.31351218443411   0.85387779187241  H     
   0.10262987364283   0.33874143943203   0.07217431655021  H     
   0.89730263483223   0.66123082785629   0.92781527932334  H     
   0.15091301687002   0.39047957535930   0.92711767076300  H     
   0.71638377758775   0.68446520594082   0.40919610638116  H     
   0.11760060309569   0.67258729597564   0.42897280688404  H     
   0.98264987678313   0.09983216153296   0.40052390282455  H     
   0.02305468505091   0.91788469835270   0.58518826963162  H     
   0.92198196951882   0.37773325365719   0.56535497405731  H     
   0.29327323196698   0.30563215617663   0.67403638954326  H     
   0.22118336568987   0.58249262454005   0.63157522390562  H     
   0.09259296543194   0.74945347399854   0.71017219849356  H     
   0.30680406054961   0.70715352307817   0.68217080454076  H     
   0.25224283538267   0.96480090467799   0.48468194088482  H     
   0.27135929766190   0.72130787031524   0.48841041440127  H     
   0.40261956158159   0.78458623531956   0.53472197740378  H     
   0.47877706228307   0.94011132919637   0.68042027350529  H     
   0.58373654006098   0.07426712547234   0.62674400205470  H     
   0.52011015058942   0.92953807060276   0.57559425565355  H     
   0.40114038570670   0.36481374711722   0.52928778174721  H     
   0.18154721982702   0.44576511492546   0.55122922173598  H     
   0.30506306271435   0.22205968574169   0.49881556017501  H     
   0.85913219114135   0.54326790365422   0.73437876223378  H     
   0.76517405956183   0.68073598735726   0.65460807723548  H     
   0.98355228188821   0.59365495865696   0.65107282274701  H     
   0.63655125457045   0.43037627349390   0.64022575683483  H     
   0.72790834103697   0.31156317248974   0.72380097895229  H     
   0.76942841959965   0.17643370665332   0.63495994003572  H     
   0.54900891512072   0.69365048583637   0.30603425323179  H     
   0.76298791681059   0.60599058767609   0.26029362506462  H     
   0.62327129859325   0.85368063693103   0.24784827522905  H     
   0.52229363877114   0.00152628522272   0.46259997385008  H     
   0.42058319415454   0.94207907312678   0.39712714171042  H     
   0.50738662429335   0.11345787269276   0.36897381415716  H     
   0.72697236197255   0.42412120506906   0.39238071115501  H     
   0.63086901950757   0.29168078406055   0.35436428711477  H     
   0.81811396815449   0.29780561438764   0.29930801975922  H     
   0.63913105428572   0.15106868966891   0.49130217163548  H     
   0.77102327905918   0.24686247676003   0.51794957409069  H     
   0.82868746047051   0.99000417751653   0.52217580625356  H     
   0.22549245602435   0.56147522235043   0.25104359317905  H     
   0.36330591724312   0.47622831773751   0.32181135478074  H     
   0.27269623524031   0.72905401220076   0.29973403290861  H     
   0.17240239154646   0.31842461818722   0.39971814457789  H     
   0.02813044548096   0.40803791374291   0.33257621394856  H     
   0.95884851795668   0.46757020967043   0.43530834251686  H     
   0.97203597280309   0.96941434736287   0.08302136961656  C     
   0.13969821182846   0.91048270668407   0.04144342211646  C     
   0.83218988215919   0.05755677294253   0.04265070998823  C     
   0.16788602850959   0.94252371529418   0.95693768081028  C     
   0.86045080243203   0.08943049522381   0.95809867939857  C     
   0.02797237157492   0.03300448035493   0.91656910269498  C     
   0.27896190085176   0.82777477201057   0.08089754435121  C     
   0.44315139838257   0.77460996575399   0.04126297602980  C     
   0.33401533913898   0.88975814044062   0.91747169448318  C     
   0.47142761687578   0.80647502491840   0.95670348991948  C     
   0.66610430990564   0.11041513118967   0.08226719279782  C     
   0.72096328565558   0.17182095516301   0.91882979495568  C     
   0.52855313750104   0.19342090448080   0.04312353687905  C     
   0.55677681067331   0.22488867667080   0.95848960389456  C     
   0.58410128497647   0.70078741425728   0.08167034467273  C     
   0.74282220766720   0.65904927949022   0.04126062862902  C     
   0.63902904180397   0.76225730110379   0.91723333350035  C     
   0.77078062435780   0.68925207901289   0.95808590075050  C     
   0.36095839096150   0.23786331135215   0.08270408255208  C     
   0.41563142663231   0.29864307847872   0.91817552543812  C     
   0.22912402042992   0.31087045926531   0.04190410612409  C     
   0.25691844544025   0.34089828709043   0.95871159499584  C     
   0.94619671071198   0.93912336112352   0.16512204935144  C     
   0.05513235696615   0.06878513644685   0.83500824302374  C     
   0.92963767529460   0.90946068252261   0.23651016388301  C     
   0.07883467709166   0.10098965035740   0.76373713528805  C     
   0.68837477714065   0.80214840188736   0.36528395860821  C     
   0.09639483227230   0.62964932429848   0.37293008688604  C     
   0.85576441116551   0.10782115436884   0.40197966078518  C     
   0.14638125106747   0.88849068917316   0.60021251450626  C     
   0.90235117798697   0.36511682982471   0.63043540153942  C     
   0.31275565286744   0.20453503580148   0.62532907911621  C     
   0.52790256661303   0.97562723641712   0.40018739705111  C     
   0.65634983550253   0.73352043753268   0.29028920857104  C     
   0.06200822085952   0.44663993104546   0.38576328352537  C     
   0.24772470718541   0.59730989177986   0.30804517948014  C     
   0.75299061255664   0.29003002162304   0.35902849420399  C     
   0.77102440228759   0.12189112450040   0.48778908548033  C     
   0.27353350398259   0.83851255335845   0.52333463384270  C     
   0.19407081032040   0.72288573768542   0.65943647925581  C     
   0.75113640521731   0.31769791231988   0.65883196305017  C     
   0.87692249250132   0.55581623706377   0.66948057767413  C     
   0.48176739066739   0.02801269744576   0.62731854766378  C     
   0.30071827524555   0.31429686558866   0.54715323900891  C     
