H19 C17 S1 N1 O2
1.0
28.934734 0.000000 0.000000
0.000000 26.618833 0.000000
0.000000 0.000000 29.218543
H C S N O
19 17 1 1 2
direct
0.540866 0.480072 0.434808 H
0.619043 0.496835 0.433835 H
0.661552 0.501522 0.501857 H
0.623904 0.494631 0.571792 H
0.443852 0.417451 0.468449 H
0.489841 0.432235 0.441372 H
0.397401 0.446260 0.511948 H
0.420903 0.470420 0.410628 H
0.416942 0.502837 0.456778 H
0.462138 0.474495 0.656714 H
0.352763 0.439818 0.577251 H
0.384431 0.453666 0.649862 H
0.430346 0.581365 0.409015 H
0.426664 0.541002 0.368361 H
0.503791 0.562020 0.346002 H
0.469250 0.608871 0.341211 H
0.566060 0.617347 0.352664 H
0.567633 0.657421 0.393464 H
0.533748 0.666103 0.350904 H
0.557302 0.482387 0.462875 C
0.533469 0.475531 0.504740 C
0.603786 0.492339 0.462332 C
0.559212 0.482131 0.545445 C
0.629137 0.495971 0.502860 C
0.606960 0.491443 0.544098 C
0.459184 0.461537 0.544077 C
0.465238 0.445497 0.461586 C
0.477626 0.469851 0.588412 C
0.411270 0.451099 0.541088 C
0.438825 0.485789 0.435865 C
0.449356 0.467779 0.627400 C
0.384634 0.447850 0.579983 C
0.403355 0.456114 0.623386 C
0.448265 0.557805 0.389716 C
0.484292 0.585945 0.363334 C
0.547661 0.640795 0.371004 C
0.535397 0.479330 0.599332 S
0.486724 0.462589 0.505123 N
0.470718 0.521109 0.417961 O
0.512213 0.614053 0.394148 O
