EMC at frac (0, 0, 0)
19
Reciprocal
0.000000 0.000000 0.000000  1.01
-0.016987 0.000000 0.000000  1.01
0.016987 0.000000 0.000000  1.01
0.000000 -0.016987 0.000000  1.01
0.000000 0.016987 0.000000  1.01
0.000000 0.000000 -0.016987  1.01
0.000000 0.000000 0.016987  1.01
-0.016987 -0.016987 0.000000  1.01
0.016987 0.016987 0.000000  1.01
0.016987 -0.016987 0.000000  1.01
-0.016987 0.016987 0.000000  1.01
-0.016987 0.000000 -0.016987  1.01
0.016987 0.000000 0.016987  1.01
0.016987 0.000000 -0.016987  1.01
-0.016987 0.000000 0.016987  1.01
0.000000 -0.016987 -0.016987  1.01
0.000000 0.016987 0.016987  1.01
0.000000 0.016987 -0.016987  1.01
0.000000 -0.016987 0.016987  1.01
