H13 C18 S1 N1
1.0
24.406061 0.000000 0.000000
0.000000 29.186765 0.000000
0.000000 0.000000 28.814465
H C S N
13 18 1 1
direct
0.499144 0.422328 0.447795 H
0.499139 0.349119 0.478551 H
0.505238 0.337710 0.559125 H
0.511202 0.400136 0.608451 H
0.499878 0.584000 0.459459 H
0.572611 0.507968 0.422055 H
0.409116 0.499902 0.447046 H
0.516917 0.583530 0.621253 H
0.503825 0.652192 0.500028 H
0.554699 0.515079 0.342161 H
0.392080 0.505912 0.366975 H
0.511731 0.652468 0.581293 H
0.464666 0.514885 0.315348 H
0.501261 0.418268 0.480460 C
0.504141 0.456956 0.509712 C
0.501482 0.374801 0.498712 C
0.508163 0.449619 0.558064 C
0.505137 0.367904 0.546816 C
0.508547 0.404823 0.575906 C
0.505429 0.541062 0.515658 C
0.492204 0.503949 0.440942 C
0.510359 0.541675 0.564519 C
0.503121 0.583462 0.492307 C
0.536031 0.507980 0.410781 C
0.438531 0.503021 0.425689 C
0.513109 0.583467 0.588442 C
0.505497 0.623981 0.516411 C
0.525271 0.512054 0.363519 C
0.428624 0.506758 0.378299 C
0.510356 0.624261 0.564883 C
0.471791 0.511705 0.347601 C
0.512440 0.493068 0.597987 S
0.502359 0.500552 0.490647 N
