H19 C17 S1 N1 O2
1.0
26.649385 0.000000 0.000000
0.000000 26.175237 0.000000
0.000000 0.000000 30.622782
H C S N O
19 17 1 1 2
direct
0.554624 0.482975 0.559257 H
0.616384 0.541462 0.575835 H
0.644990 0.599936 0.523213 H
0.609378 0.600016 0.454046 H
0.534020 0.418954 0.532741 H
0.499625 0.390728 0.497504 H
0.438226 0.404262 0.460781 H
0.427878 0.433857 0.528425 H
0.453688 0.393677 0.560954 H
0.479148 0.513904 0.345585 H
0.398395 0.396541 0.393933 H
0.419482 0.450375 0.335639 H
0.423635 0.432697 0.621208 H
0.395477 0.476501 0.593934 H
0.417610 0.500997 0.667837 H
0.475279 0.499303 0.652890 H
0.450661 0.626647 0.642227 H
0.490620 0.586192 0.660284 H
0.436448 0.590516 0.682530 H
0.565999 0.505891 0.537330 C
0.545063 0.503236 0.494960 C
0.602414 0.540957 0.547300 C
0.561817 0.540010 0.464107 C
0.619376 0.576114 0.516066 C
0.598618 0.575745 0.475132 C
0.484865 0.463357 0.444233 C
0.503191 0.422365 0.514951 C
0.495688 0.496513 0.409177 C
0.447322 0.426448 0.437533 C
0.458591 0.426508 0.545485 C
0.471135 0.491422 0.368924 C
0.423480 0.421951 0.397768 C
0.435668 0.454205 0.363083 C
0.427602 0.466989 0.608009 C
0.440502 0.505101 0.642630 C
0.454914 0.592545 0.654909 C
0.541175 0.543130 0.410768 S
0.509694 0.466290 0.484428 N
0.466805 0.466012 0.576204 O
0.436048 0.555215 0.625422 O
