#p opt LC-wPBE/6-311++g(d,p) IOP(3/107=0158500000) IOP(3/108=0158500000)

Title

 0 3
  C                                                 2.225073938433      1.824747386540     -0.196138420034
  C                                                 1.044406268546      2.638806194948     -0.202362192086
  C                                                 1.061317748626      4.007845887525     -0.470034670844
  C                                                 2.300375663179      4.566415610432     -0.769181207171
  C                                                 3.477000307723      3.801437398731     -0.817687008707
  C                                                 3.442795824470      2.439295064949     -0.535431822924
  C                                                 1.808577579833      0.453641333238      0.096687535040
  C                                                 0.437252249890      0.541187374385      0.221534587623
  H                                                 0.145412664324      4.594138598554     -0.461292884955
  H                                                 4.416752882863      4.284664613692     -1.084558414523
  H                                                 4.360769720006      1.856582906290     -0.601788615381
  C                                                -0.437226720455     -0.541142578116      0.221552512588
  C                                                -1.808554191070     -0.453598258012      0.096732247959
  C                                                -2.225059443600     -1.824709637697     -0.196049983127
  C                                                -1.044394068755     -2.638770896234     -0.202286186764
  C                                                -3.442795007846     -2.439262608117     -0.535282890948
  C                                                -1.061317251890     -4.007817008012     -0.469925299170
  C                                                -3.477011871348     -3.801412120068     -0.817501731563
  H                                                -4.360770421885     -1.856549614056     -0.601616891105
  C                                                -2.300386665327     -4.566391168167     -0.769017039758
  H                                                -0.145413165855     -4.594111400050     -0.461201040957
  H                                                -4.416774699227     -4.284644711689     -1.084327330982
  C                                                 1.465576233711     -2.060619529622     -0.011920264715
  C                                                 3.747890107959     -1.146105790961      0.368866444830
  C                                                 4.676200747811     -0.256762218341      0.935103844527
  S                                                 4.531431925226     -2.690909271149      0.046455774494
  C                                                 5.966249820275     -0.798373254966      1.075553568331
  H                                                 4.389752439378      0.731794004606      1.287517857781
  C                                                 6.062290510486     -2.103587822921      0.623495073697
  H                                                 6.809224623623     -0.260598450459      1.509610167401
  C                                                 2.367729855795     -0.887807013796      0.134452658574
  C                                                 7.271060003929     -2.985586324174      0.615442807302
  H                                                 7.109710448323     -3.899265188024      1.207413177289
  H                                                 7.536663309199     -3.299179934788     -0.405725006696
  H                                                 8.130502831358     -2.451104634037      1.041363562121
  O                                                 1.865549440316     -3.211958111899     -0.174865258956
  C                                                -1.465557506820      2.060665374367     -0.011884735710
  C                                                -3.747874709021      1.146129086255      0.368886848470
  C                                                -4.676183086537      0.256744999223      0.935064644006
  S                                                -4.531432499121      2.690937898960      0.046539942547
  C                                                -5.966243852465      0.798328402507      1.075511816286
  H                                                -4.389727973328     -0.731827213741      1.287429665077
  C                                                -6.062297683487      2.103559512898      0.623503730215
  H                                                -6.809219924477      0.260518988623      1.509523089230
  C                                                -2.367709621365      0.887848651825      0.134478798049
  C                                                -7.271085879211      2.985532314711      0.615448412687
  H                                                -7.109750065493      3.899226092570      1.207398851298
  H                                                -7.536706290580      3.299100033109     -0.405723244982
  H                                                -8.130513227658      2.451040243474      1.041387436326
  O                                                -1.865526340201      3.211987523394     -0.174956913928
  N                                                 0.061177837323     -1.810510290825      0.060586055883
  N                                                -0.061156677254      1.810553394633      0.060570462885
  Cl                                               -2.392977354267     -6.279428012127     -1.118156848039
  Cl                                                2.392951215933      6.279444171605     -1.118365668492


