#p opt freq 6-311++g(d,p) iop(3/107=0157600000,3/108=0157600000) lc-wpbe

Title

0 1
 C                 -1.99321100   -2.10091000    0.06894300
 C                 -0.71826800   -2.75122300    0.06567000
 C                 -0.56655800   -4.11617900   -0.13038800
 C                 -1.73886800   -4.86317100   -0.34793300
 C                 -3.00428800   -4.24611500   -0.37649600
 C                 -3.13471000   -2.87370200   -0.16705100
 C                 -1.75692700   -0.65210100    0.25117400
 C                 -0.34842100   -0.57506000    0.35198300
 H                  0.42051100   -4.57438800   -0.12889000
 H                 -3.88803100   -4.85637800   -0.56334500
 H                 -4.11926000   -2.40926300   -0.19875600
 C                  0.34842800    0.57506700    0.35198100
 C                  1.75693300    0.65210800    0.25115800
 C                  1.99321400    2.10091700    0.06892100
 C                  0.71827100    2.75123000    0.06566700
 C                  3.13470800    2.87371200   -0.16709400
 C                  0.56655600    4.11618600   -0.13038900
 C                  3.00428100    4.24612400   -0.37653600
 H                  4.11925700    2.40927400   -0.19881700
 C                  1.73886200    4.86318000   -0.34795200
 H                 -0.42051400    4.57439400   -0.12887600
 H                  3.88802000    4.85638800   -0.56340100
 C                 -1.70848300    1.86165700    0.14572200
 C                 -3.90589000    0.63646300    0.31818000
 C                 -4.73829300   -0.22450900    1.01827300
 S                 -4.85547800    1.88008600   -0.46572000
 C                 -6.11242400    0.09407900    0.89685400
 H                 -4.35347100   -1.03106300    1.64121300
 C                 -6.34473500    1.19743700    0.10139600
 H                 -6.91267500   -0.45719000    1.39057700
 C                 -2.45620800    0.55884200    0.24071500
 C                 -7.66064200    1.82422000   -0.24697400
 H                 -7.71454900    2.87073900    0.08798100
 H                 -7.84211700    1.81385000   -1.33219600
 H                 -8.47631100    1.27129800    0.23768400
 O                 -2.25612900    2.94762300   -0.02832600
 C                  1.70848600   -1.86164900    0.14569600
 C                  3.90589500   -0.63646500    0.31815500
 C                  4.73830400    0.22448400    1.01827000
 S                  4.85547400   -1.88008200   -0.46576600
 C                  6.11243200   -0.09411200    0.89684600
 H                  4.35348800    1.03102400    1.64123100
 C                  6.34473600   -1.19745700    0.10136600
 H                  6.91268700    0.45713800    1.39058400
 C                  2.45621300   -0.55883600    0.24069300
 C                  7.66063800   -1.82424100   -0.24701800
 H                  7.71451800   -2.87078400    0.08786400
 H                  7.84213600   -1.81379800   -1.33223600
 H                  8.47630700   -1.27136800    0.23769600
 O                  2.25613300   -2.94761600   -0.02834700
 N                 -0.29800600    1.77729900    0.24919200
 N                  0.29801100   -1.77729300    0.24918300
 C                 -1.64368300   -6.27962000   -0.55221600
 C                  1.64367200    6.27962800   -0.55223400
 N                 -1.57683400   -7.43023200   -0.71799600
 N                  1.57681900    7.43024000   -0.71801400

