#p opt LC-wPBE/6-311++g(d,p) IOP(3/107=0162800000) IOP(3/108=0162800000)

Title

 0 3
  C                                                -1.777498327334     -2.266653043467     -0.243862684126
  C                                                -0.448927239389     -2.806110517427     -0.250586907077
  C                                                -0.177986535146     -4.148488067721     -0.518178576775
  C                                                -1.261058646513     -4.972947829893     -0.817978843948
  C                                                -2.570561100597     -4.464451227597     -0.861030385468
  C                                                -2.837771236145     -3.126663462685     -0.580177533537
  C                                                -1.666553126755     -0.836455569031      0.048021954382
  C                                                -0.309026104976     -0.623960101706      0.169558241394
  H                                                 0.846809834166     -4.514550065466     -0.506678832738
  H                                                -1.084198767766     -6.027068972793     -1.038021982291
  H                                                -3.395136812877     -5.128997518504     -1.125241765925
  H                                                -3.857994705748     -2.749734289757     -0.643713657565
  C                                                 0.309013423161      0.623925625127      0.169559038923
  C                                                 1.666541408110      0.836420242605      0.048035775824
  C                                                 1.777492235247      2.266617527698     -0.243841635881
  C                                                 0.448922324963      2.806076594252     -0.250586768358
  C                                                 2.837774813351      3.126627509521     -0.580125355339
  C                                                 0.177989277315      4.148455489606     -0.518179599364
  C                                                 2.570572620556      4.464416899244     -0.860977881652
  H                                                 3.857999642619      2.749696567270     -0.643634990185
  C                                                 1.261069440027      4.972914500153     -0.817953895692
  H                                                -0.846806626345      4.514519260417     -0.506700184043
  H                                                 3.395155156541      5.128963812965     -1.125166414100
  H                                                 1.084215874775      6.027036828192     -1.037996451953
  C                                                -1.875316631871      1.693314745953     -0.058898782307
  C                                                -3.904189782588      0.306162406570      0.333505931346
  C                                                -4.613888586615     -0.762537908358      0.903713037828
  S                                                -5.005417783429      1.645430881201      0.020964161759
  C                                                -5.989990630139     -0.512373258807      1.055051365249
  H                                                -4.118115981337     -1.667436265681      1.248036377826
  C                                                -6.368979280887      0.741041101352      0.607734497126
  H                                                -6.693432471447     -1.220584024934      1.493046789203
  C                                                -2.502016674516      0.352141292229      0.089373440656
  C                                                -7.739876556499      1.341504624712      0.611243654251
  H                                                -7.775543027201      2.266891366172      1.205877883625
  H                                                -8.074938997801      1.592534698995     -0.406733572481
  H                                                -8.460349098868      0.632976096285      1.040960874550
  O                                                -2.519217217045      2.728792745713     -0.220366950668
  C                                                 1.875308637775     -1.693352784781     -0.058847050703
  C                                                 3.904182091056     -0.306174096243      0.333514784740
  C                                                 4.613874424490      0.762571947473      0.903644389761
  S                                                 5.005423298606     -1.645449101238      0.021046973988
  C                                                 5.989981325005      0.512434630350      1.054982583213
  H                                                 4.118094889290      1.667489685597      1.247908143132
  C                                                 6.368981533085     -0.741001036100      0.607735122253
  H                                                 6.693419591223      1.220682925467      1.492923063259
  C                                                 2.502007264520     -0.352173929268      0.089393433002
  C                                                 7.739889579510     -1.341439896959      0.611249406520
  H                                                 7.775566769094     -2.266838149890      1.205864374953
  H                                                 8.074967906170     -1.592442419564     -0.406729774919
  H                                                 8.460344505624     -0.632906544931      1.040988301056
  O                                                 2.519203898127     -2.728824509003     -0.220377060330
  N                                                -0.451966967684      1.754670325926      0.010001588823
  N                                                 0.451957153109     -1.754705739241      0.010022348785


