ALGO = Normal
EDIFF = 1e-05
ENCUT = 1000
HFSCREEN = 0.2
ICHARG = 1
ISMEAR = 0
ISPIN = 2
IVDW = 12
LHFCALC = True
LREAL = Auto
LWAVE = False
MAGMOM = 220*0.6
NELM = 200
PREC = Accurate
PRECFOCK = Fast
SIGMA = 0.05
VDW_A1 = 0.383
VDW_A2 = 5.685
VDW_S8 = 2.31
