B4 H76 C68 S4 N4 O8 F16
1.0
10.214895 0.000000 -0.587914
0.000000 6.809800 0.000000
0.000000 0.000000 24.327900
B H C S N O F
4 76 68 4 4 8 16
direct
0.931570 0.178800 0.634660 B
0.568430 -0.321200 0.865340 B
0.068430 0.821200 0.365340 B
1.431570 0.321200 0.134660 B
0.647102 0.289650 0.347175 H
0.868548 0.355178 0.351359 H
0.988959 0.373496 0.435965 H
0.882316 0.346562 0.517382 H
0.372302 0.044870 0.380939 H
0.502570 0.102662 0.351566 H
0.240724 0.157484 0.430003 H
0.307295 0.251924 0.309923 H
0.296076 0.378639 0.365079 H
0.424099 0.267851 0.608302 H
0.114282 0.132303 0.505378 H
0.203984 0.186432 0.594753 H
0.334043 0.685595 0.308632 H
0.323613 0.527822 0.259553 H
0.542084 0.609976 0.237979 H
0.444244 0.793113 0.229860 H
0.718467 0.826247 0.250243 H
0.722924 0.982892 0.299352 H
0.626941 1.016827 0.245917 H
0.852898 0.789650 0.152825 H
0.631452 0.855178 0.148641 H
0.511041 0.873496 0.064035 H
0.617684 0.846562 -0.017382 H
1.127698 0.544870 0.119061 H
0.997430 0.602662 0.148434 H
1.259276 0.657484 0.069997 H
1.192705 0.751924 0.190077 H
1.203924 0.878639 0.134921 H
1.075901 0.767851 -0.108302 H
1.385718 0.632303 -0.005378 H
1.296016 0.686432 -0.094753 H
1.165957 1.185595 0.191368 H
1.176387 1.027822 0.240447 H
0.957916 1.109976 0.262021 H
1.055756 1.293113 0.270140 H
0.781533 1.326247 0.249757 H
0.777076 1.482892 0.200648 H
0.873059 1.516827 0.254083 H
0.352898 0.710350 0.652825 H
0.131452 0.644822 0.648641 H
0.011041 0.626504 0.564035 H
0.117684 0.653438 0.482618 H
0.627698 0.955130 0.619061 H
0.497430 0.897338 0.648434 H
0.759276 0.842516 0.569997 H
0.692705 0.748076 0.690077 H
0.703924 0.621361 0.634921 H
0.575901 0.732149 0.391698 H
0.885718 0.867697 0.494622 H
0.796016 0.813568 0.405247 H
0.665957 0.314405 0.691368 H
0.676387 0.472178 0.740447 H
0.457916 0.390024 0.762021 H
0.555756 0.206887 0.770140 H
0.281533 0.173753 0.749757 H
0.277076 0.017108 0.700648 H
0.373059 -0.016827 0.754083 H
0.147102 0.210350 0.847175 H
0.368548 0.144822 0.851359 H
0.488959 0.126504 0.935965 H
0.382316 0.153438 1.017382 H
-0.127698 0.455130 0.880939 H
0.002570 0.397338 0.851566 H
-0.259276 0.342516 0.930003 H
-0.192705 0.248076 0.809923 H
-0.203924 0.121361 0.865079 H
-0.075901 0.232149 1.108302 H
-0.385718 0.367697 1.005378 H
-0.296016 0.313568 1.094753 H
-0.165957 -0.185595 0.808632 H
-0.176387 -0.027822 0.759553 H
0.042084 -0.109976 0.737979 H
-0.055756 -0.293113 0.729860 H
0.218467 -0.326247 0.750243 H
0.222924 -0.482892 0.799352 H
0.126941 -0.516827 0.745917 H
0.693660 0.298700 0.382010 C
0.626150 0.271900 0.430660 C
0.825330 0.337600 0.384540 C
0.699070 0.297700 0.481310 C
0.897140 0.351800 0.434950 C
0.834320 0.334100 0.482960 C
0.415730 0.217200 0.472820 C
0.432880 0.154500 0.374160 C
0.467970 0.249700 0.527330 C
0.280010 0.176400 0.465950 C
0.358060 0.312000 0.341460 C
0.387890 0.241600 0.572220 C
0.204560 0.163700 0.510840 C
0.257590 0.196000 0.564250 C
0.384800 0.593500 0.286680 C
0.486850 0.703500 0.257460 C
0.666350 0.917900 0.271010 C
0.806340 0.798700 0.117990 C
0.873850 0.771900 0.069340 C
0.674670 0.837600 0.115460 C
0.800930 0.797700 0.018690 C
0.602860 0.851800 0.065050 C
0.665680 0.834100 0.017040 C
1.084270 0.717200 0.027180 C
1.067120 0.654500 0.125840 C
1.032030 0.749700 -0.027330 C
1.219990 0.676400 0.034050 C
1.141940 0.812000 0.158540 C
1.112110 0.741600 -0.072220 C
1.295440 0.663700 -0.010840 C
1.242410 0.696000 -0.064250 C
1.115200 1.093500 0.213320 C
1.013150 1.203500 0.242540 C
0.833650 1.417900 0.228990 C
0.306340 0.701300 0.617990 C
0.373850 0.728100 0.569340 C
0.174670 0.662400 0.615460 C
0.300930 0.702300 0.518690 C
0.102860 0.648200 0.565050 C
0.165680 0.665900 0.517040 C
0.584270 0.782800 0.527180 C
0.567120 0.845500 0.625840 C
0.532030 0.750300 0.472670 C
0.719990 0.823600 0.534050 C
0.641940 0.688000 0.658540 C
0.612110 0.758400 0.427780 C
0.795440 0.836300 0.489160 C
0.742410 0.804000 0.435750 C
0.615200 0.406500 0.713320 C
0.513150 0.296500 0.742540 C
0.333650 0.082100 0.728990 C
0.193660 0.201300 0.882010 C
0.126150 0.228100 0.930660 C
0.325330 0.162400 0.884540 C
0.199070 0.202300 0.981310 C
0.397140 0.148200 0.934950 C
0.334320 0.165900 0.982960 C
-0.084270 0.282800 0.972820 C
-0.067120 0.345500 0.874160 C
-0.032030 0.250300 1.027330 C
-0.219990 0.323600 0.965950 C
-0.141940 0.188000 0.841460 C
-0.112110 0.258400 1.072220 C
-0.295440 0.336300 1.010840 C
-0.242410 0.304000 1.064250 C
-0.115200 -0.093500 0.786680 C
-0.013150 -0.203500 0.757460 C
0.166350 -0.417900 0.771010 C
0.631610 0.286750 0.544400 S
0.868390 0.786750 -0.044400 S
0.368390 0.713250 0.455600 S
0.131610 0.213250 1.044400 S
0.493740 0.221310 0.427920 N
1.006260 0.721310 0.072080 N
0.506260 0.778690 0.572080 N
-0.006260 0.278690 0.927920 N
0.448400 0.450060 0.322140 O
0.565940 0.813370 0.296380 O
1.051600 0.950060 0.177860 O
0.934060 1.313370 0.203620 O
0.551600 0.549940 0.677860 O
0.434060 0.186630 0.703620 O
-0.051600 0.049940 0.822140 O
0.065940 -0.313370 0.796380 O
0.961980 0.088100 0.585610 F
1.041710 0.188380 0.670220 F
0.833240 0.070260 0.658150 F
0.885630 0.368070 0.622780 F
0.538020 -0.411900 0.914390 F
0.458290 -0.311620 0.829780 F
0.666760 -0.429740 0.841850 F
0.614370 -0.131930 0.877220 F
0.038020 0.911900 0.414390 F
-0.041710 0.811620 0.329780 F
0.166760 0.929740 0.341850 F
0.114370 0.631930 0.377220 F
1.461980 0.411900 0.085610 F
1.541710 0.311620 0.170220 F
1.333240 0.429740 0.158150 F
1.385630 0.131930 0.122780 F
