pymatgen v2019.10.4 with grid density = 1480 / atom
0
Gamma
2 1 1
