%mem=50GB
%nproc=16
#P uLC-wHPBE/6-31G iop(3/107=0255700000, 3/108=0255700000) scf=(conver=6,fermi,ndamp=35,noincfock,novaracc,vshift=500,xqc)

H6 C5

1 2
C -1.206512 0.696580 0.000000
C -1.206512 -0.696580 0.000000
C -0.000000 -1.393160 0.000000
C 1.206512 -0.696580 0.000000
C 1.206512 0.696580 0.000000
H 0.000000 2.482681 0.000000
H -2.150065 1.241340 0.000000
H -2.150065 -1.241340 0.000000
H -0.000000 -2.482681 0.000000
H 2.150065 -1.241340 0.000000
H 2.150065 1.241340 0.000000



