H76 C68 S4 N4 Cl4 O24
1.0
6.965434 0.000000 -0.837483
0.000000 12.677300 0.000000
0.000000 0.000000 19.263500
H C S N Cl O
76 68 4 4 4 24
direct
0.134332 0.517268 0.317344 H
0.088932 0.697469 0.310048 H
0.135998 0.804004 0.410304 H
0.221866 0.726466 0.519010 H
0.058819 0.372168 0.336258 H
0.131562 0.266306 0.376103 H
0.316746 0.199663 0.443876 H
0.279060 0.295586 0.271271 H
0.381056 0.398670 0.307071 H
0.372103 0.370424 0.661138 H
0.409817 0.107502 0.545644 H
0.431248 0.190595 0.655157 H
0.700082 0.277473 0.295930 H
0.532254 0.202228 0.260147 H
0.611038 0.080316 0.356014 H
0.775418 0.091132 0.305240 H
0.940728 0.020208 0.415640 H
0.783209 0.054602 0.464874 H
0.996150 0.101575 0.478321 H
-0.134332 1.017268 0.182656 H
-0.088932 1.197469 0.189952 H
-0.135998 1.304004 0.089696 H
-0.221866 1.226466 -0.019010 H
-0.058819 0.872168 0.163742 H
-0.131562 0.766306 0.123897 H
-0.316746 0.699663 0.056124 H
-0.279060 0.795586 0.228729 H
-0.381056 0.898670 0.192929 H
-0.372103 0.870424 -0.161138 H
-0.409817 0.607502 -0.045644 H
-0.431248 0.690595 -0.155157 H
-0.700082 0.777473 0.204070 H
-0.532254 0.702228 0.239853 H
-0.611038 0.580316 0.143986 H
-0.775418 0.591132 0.194760 H
-0.940728 0.520208 0.084360 H
-0.783209 0.554602 0.035126 H
-0.996150 0.601575 0.021679 H
0.865668 0.482732 0.682656 H
0.911068 0.302531 0.689952 H
0.864002 0.195996 0.589696 H
0.778134 0.273534 0.480990 H
0.941181 0.627832 0.663742 H
0.868438 0.733694 0.623897 H
0.683254 0.800337 0.556124 H
0.720940 0.704414 0.728729 H
0.618944 0.601330 0.692929 H
0.627897 0.629576 0.338862 H
0.590183 0.892498 0.454356 H
0.568752 0.809405 0.344843 H
0.299918 0.722527 0.704070 H
0.467746 0.797772 0.739853 H
0.388962 0.919684 0.643986 H
0.224582 0.908868 0.694760 H
0.059272 0.979792 0.584360 H
0.216791 0.945398 0.535126 H
0.003850 0.898425 0.521679 H
0.134332 -0.017268 0.817344 H
0.088932 -0.197469 0.810048 H
0.135998 -0.304004 0.910304 H
0.221866 -0.226466 1.019010 H
0.058819 0.127832 0.836258 H
0.131562 0.233694 0.876103 H
0.316746 0.300337 0.943876 H
0.279060 0.204414 0.771271 H
0.381056 0.101330 0.807071 H
0.372103 0.129576 1.161138 H
0.409817 0.392498 1.045644 H
0.431248 0.309405 1.155157 H
0.700082 0.222527 0.795930 H
0.532254 0.297772 0.760147 H
0.611038 0.419684 0.856014 H
0.775418 0.408868 0.805240 H
0.940728 0.479792 0.915640 H
0.783209 0.445398 0.964874 H
0.996150 0.398425 0.978321 H
0.152000 0.558620 0.358740 C
0.204800 0.508710 0.423840 C
0.125900 0.665990 0.354370 C
0.229690 0.574400 0.483780 C
0.152800 0.729780 0.414080 C
0.203900 0.683810 0.478210 C
0.288410 0.344850 0.489380 C
0.171200 0.337840 0.363020 C
0.312310 0.394930 0.555650 C
0.327800 0.235480 0.487490 C
0.329900 0.327990 0.316480 C
0.362300 0.336250 0.616970 C
0.382000 0.180650 0.548150 C
0.397200 0.230120 0.613630 C
0.605200 0.223030 0.305250 C
0.705900 0.129180 0.339410 C
0.893800 0.078440 0.442450 C
-0.152000 1.058620 0.141260 C
-0.204800 1.008710 0.076160 C
-0.125900 1.165990 0.145630 C
-0.229690 1.074400 0.016220 C
-0.152800 1.229780 0.085920 C
-0.203900 1.183810 0.021790 C
-0.288410 0.844850 0.010620 C
-0.171200 0.837840 0.136980 C
-0.312310 0.894930 -0.055650 C
-0.327800 0.735480 0.012510 C
-0.329900 0.827990 0.183520 C
-0.362300 0.836250 -0.116970 C
-0.382000 0.680650 -0.048150 C
-0.397200 0.730120 -0.113630 C
-0.605200 0.723030 0.194750 C
-0.705900 0.629180 0.160590 C
-0.893800 0.578440 0.057550 C
0.848000 0.441380 0.641260 C
0.795200 0.491290 0.576160 C
0.874100 0.334010 0.645630 C
0.770310 0.425600 0.516220 C
0.847200 0.270220 0.585920 C
0.796100 0.316190 0.521790 C
0.711590 0.655150 0.510620 C
0.828800 0.662160 0.636980 C
0.687690 0.605070 0.444350 C
0.672200 0.764520 0.512510 C
0.670100 0.672010 0.683520 C
0.637700 0.663750 0.383030 C
0.618000 0.819350 0.451850 C
0.602800 0.769880 0.386370 C
0.394800 0.776970 0.694750 C
0.294100 0.870820 0.660590 C
0.106200 0.921560 0.557550 C
0.152000 -0.058620 0.858740 C
0.204800 -0.008710 0.923840 C
0.125900 -0.165990 0.854370 C
0.229690 -0.074400 0.983780 C
0.152800 -0.229780 0.914080 C
0.203900 -0.183810 0.978210 C
0.288410 0.155150 0.989380 C
0.171200 0.162160 0.863020 C
0.312310 0.105070 1.055650 C
0.327800 0.264520 0.987490 C
0.329900 0.172010 0.816480 C
0.362300 0.163750 1.116970 C
0.382000 0.319350 1.048150 C
0.397200 0.269880 1.113630 C
0.605200 0.276970 0.805250 C
0.705900 0.370820 0.839410 C
0.893800 0.421560 0.942450 C
0.281440 0.528080 0.568200 S
-0.281440 1.028080 -0.068200 S
0.718560 0.471920 0.431800 S
0.281440 -0.028080 1.068200 S
0.228500 0.399690 0.427960 N
-0.228500 0.899690 0.072040 N
0.771500 0.600310 0.572040 N
0.228500 0.100310 0.927960 N
0.215840 0.995280 0.301040 Cl
0.784160 0.495280 0.198960 Cl
0.784160 0.004720 0.698960 Cl
0.215840 0.504720 0.801040 Cl
0.477580 0.264180 0.350930 O
0.838180 0.163470 0.397000 O
-0.477580 0.764180 0.149070 O
-0.838180 0.663470 0.103000 O
0.522420 0.735820 0.649070 O
0.161820 0.836530 0.603000 O
0.477580 0.235820 0.850930 O
0.838180 0.336530 0.897000 O
0.144660 1.100430 0.288720 O
0.060300 0.921020 0.286080 O
0.296570 0.984480 0.372830 O
0.361360 0.974850 0.256320 O
0.855340 0.600430 0.211280 O
0.939700 0.421020 0.213920 O
0.703430 0.484480 0.127170 O
0.638640 0.474850 0.243680 O
0.855340 -0.100430 0.711280 O
0.939700 0.078980 0.713920 O
0.703430 0.015520 0.627170 O
0.638640 0.025150 0.743680 O
0.144660 0.399570 0.788720 O
0.060300 0.578980 0.786080 O
0.296570 0.515520 0.872830 O
0.361360 0.525150 0.756320 O
