ALGO = Normal
EDIFF = 1e-05
EDIFFG = 0.01
ENCUT = 1000
IBRION = 2
ICHARG = 1
ISIF = 3
ISMEAR = 0
ISPIN = 2
IVDW = 12
LREAL = Auto
LWAVE = False
MAGMOM = 220*0.6
NELM = 200
NSW = 500
PREC = Accurate
SIGMA = 0.05
