Sb4 H76 C68 S4 N4 Cl24 O8
1.0
7.902678 0.000000 -2.219349
0.000000 19.684100 0.000000
0.000000 0.000000 15.106800
Sb H C S N Cl O
4 76 68 4 4 24 8
direct
0.563950 0.802790 0.506270 Sb
-0.563950 0.302790 -0.006270 Sb
-0.563950 0.197210 0.493730 Sb
0.563950 0.697210 1.006270 Sb
0.248044 0.411168 0.742852 H
0.456311 0.488942 0.807055 H
0.552776 0.566698 0.714556 H
0.432683 0.566804 0.556707 H
0.178562 0.326034 0.678896 H
0.062576 0.288500 0.590428 H
-0.144475 0.306497 0.485568 H
-0.179370 0.345852 0.617562 H
-0.092333 0.292422 0.696288 H
-0.006477 0.452296 0.272330 H
-0.278791 0.296231 0.330329 H
-0.207683 0.367817 0.222608 H
-0.193678 0.344309 0.803540 H
-0.288633 0.402559 0.734302 H
-0.213997 0.435133 0.895075 H
-0.019524 0.432880 0.893346 H
-0.102542 0.602217 0.859535 H
0.032210 0.548422 0.915935 H
-0.150470 0.554172 0.934192 H
0.751956 0.911168 0.757148 H
0.543689 0.988942 0.692945 H
0.447224 1.066698 0.785444 H
0.567317 1.066804 0.943293 H
0.821438 0.826034 0.821104 H
0.937424 0.788500 0.909572 H
1.144475 0.806497 1.014432 H
1.179370 0.845852 0.882438 H
1.092333 0.792422 0.803712 H
1.006477 0.952296 1.227670 H
1.278791 0.796231 1.169671 H
1.207683 0.867817 1.277392 H
1.193678 0.844309 0.696460 H
1.288633 0.902559 0.765698 H
1.213997 0.935133 0.604925 H
1.019524 0.932880 0.606654 H
1.102542 1.102217 0.640465 H
0.967790 1.048422 0.584065 H
1.150470 1.054172 0.565808 H
0.751956 0.588832 0.257148 H
0.543689 0.511058 0.192945 H
0.447224 0.433302 0.285444 H
0.567317 0.433196 0.443293 H
0.821438 0.673966 0.321104 H
0.937424 0.711500 0.409572 H
1.144475 0.693503 0.514432 H
1.179370 0.654148 0.382438 H
1.092333 0.707578 0.303712 H
1.006477 0.547704 0.727670 H
1.278791 0.703769 0.669671 H
1.207683 0.632183 0.777392 H
1.193678 0.655691 0.196460 H
1.288633 0.597441 0.265698 H
1.213997 0.564867 0.104925 H
1.019524 0.567120 0.106654 H
1.102542 0.397783 0.140465 H
0.967790 0.451578 0.084065 H
1.150470 0.445828 0.065808 H
0.248044 0.088832 0.242852 H
0.456311 0.011058 0.307055 H
0.552776 -0.066698 0.214556 H
0.432683 -0.066804 0.056707 H
0.178562 0.173966 0.178896 H
0.062576 0.211500 0.090428 H
-0.144475 0.193503 -0.014432 H
-0.179370 0.154148 0.117562 H
-0.092333 0.207578 0.196288 H
-0.006477 0.047704 -0.227670 H
-0.278791 0.203769 -0.169671 H
-0.207683 0.132183 -0.277392 H
-0.193678 0.155691 0.303540 H
-0.288633 0.097441 0.234302 H
-0.213997 0.064867 0.395075 H
-0.019524 0.067120 0.393346 H
-0.102542 -0.102217 0.359535 H
0.032210 -0.048422 0.415935 H
-0.150470 -0.054172 0.434192 H
0.286400 0.441640 0.704040 C
0.215800 0.438110 0.607780 C
0.409200 0.488270 0.742290 C
0.272300 0.487010 0.553540 C
0.466400 0.535020 0.687380 C
0.396400 0.534530 0.594120 C
0.012800 0.385080 0.475130 C
0.074600 0.330570 0.627560 C
0.049300 0.429170 0.409430 C
-0.113800 0.336000 0.442950 C
-0.075800 0.336080 0.667360 C
-0.033500 0.422400 0.315670 C
-0.194200 0.330020 0.350530 C
-0.153100 0.372910 0.286260 C
-0.180300 0.389910 0.778750 C
-0.136800 0.440590 0.855320 C
-0.088200 0.556870 0.887350 C
0.713600 0.941640 0.795960 C
0.784200 0.938110 0.892220 C
0.590800 0.988270 0.757710 C
0.727700 0.987010 0.946460 C
0.533600 1.035020 0.812620 C
0.603600 1.034530 0.905880 C
0.987200 0.885080 1.024870 C
0.925400 0.830570 0.872440 C
0.950700 0.929170 1.090570 C
1.113800 0.836000 1.057050 C
1.075800 0.836080 0.832640 C
1.033500 0.922400 1.184330 C
1.194200 0.830020 1.149470 C
1.153100 0.872910 1.213740 C
1.180300 0.889910 0.721250 C
1.136800 0.940590 0.644680 C
1.088200 1.056870 0.612650 C
0.713600 0.558360 0.295960 C
0.784200 0.561890 0.392220 C
0.590800 0.511730 0.257710 C
0.727700 0.512990 0.446460 C
0.533600 0.464980 0.312620 C
0.603600 0.465470 0.405880 C
0.987200 0.614920 0.524870 C
0.925400 0.669430 0.372440 C
0.950700 0.570830 0.590570 C
1.113800 0.664000 0.557050 C
1.075800 0.663920 0.332640 C
1.033500 0.577600 0.684330 C
1.194200 0.669980 0.649470 C
1.153100 0.627090 0.713740 C
1.180300 0.610090 0.221250 C
1.136800 0.559410 0.144680 C
1.088200 0.443130 0.112650 C
0.286400 0.058360 0.204040 C
0.215800 0.061890 0.107780 C
0.409200 0.011730 0.242290 C
0.272300 0.012990 0.053540 C
0.466400 -0.035020 0.187380 C
0.396400 -0.034530 0.094120 C
0.012800 0.114920 -0.024870 C
0.074600 0.169430 0.127560 C
0.049300 0.070830 -0.090570 C
-0.113800 0.164000 -0.057050 C
-0.075800 0.163920 0.167360 C
-0.033500 0.077600 -0.184330 C
-0.194200 0.169980 -0.149470 C
-0.153100 0.127090 -0.213740 C
-0.180300 0.110090 0.278750 C
-0.136800 0.059410 0.355320 C
-0.088200 -0.056870 0.387350 C
0.202690 0.491160 0.435190 S
0.797310 0.991160 1.064810 S
0.797310 0.508840 0.564810 S
0.202690 0.008840 -0.064810 S
0.096530 0.388980 0.568910 N
0.903470 0.888980 0.931090 N
0.903470 0.611020 0.431090 N
0.096530 0.111020 0.068910 N
0.578790 0.921700 0.524670 Cl
0.546640 0.682620 0.486180 Cl
0.263810 0.810940 0.462790 Cl
0.861460 0.795940 0.550670 Cl
0.558800 0.788830 0.660740 Cl
0.564960 0.812920 0.350800 Cl
-0.578790 0.421700 -0.024670 Cl
-0.546640 0.182620 0.013820 Cl
-0.263810 0.310940 0.037210 Cl
-0.861460 0.295940 -0.050670 Cl
-0.558800 0.288830 -0.160740 Cl
-0.564960 0.312920 0.149200 Cl
-0.578790 0.078300 0.475330 Cl
-0.546640 0.317380 0.513820 Cl
-0.263810 0.189060 0.537210 Cl
-0.861460 0.204060 0.449330 Cl
-0.558800 0.211170 0.339260 Cl
-0.564960 0.187080 0.649200 Cl
0.578790 0.578300 1.024670 Cl
0.546640 0.817380 0.986180 Cl
0.263810 0.689060 0.962790 Cl
0.861460 0.704060 1.050670 Cl
0.558800 0.711170 1.160740 Cl
0.564960 0.687080 0.850800 Cl
-0.048100 0.388610 0.733700 O
-0.151820 0.507230 0.818230 O
1.048100 0.888610 0.766300 O
1.151820 1.007230 0.681770 O
1.048100 0.611390 0.266300 O
1.151820 0.492770 0.181770 O
-0.048100 0.111390 0.233700 O
-0.151820 -0.007230 0.318230 O
