pymatgen v2019.10.4 with grid density = 1390 / atom
0
Gamma
3 1 1
