%rwf=Br_t1_delta-0-nicsxy-backbone-sigma.rwf
%nosave
%chk=Br_t1_delta-0-nicsxy-backbone-sigma.chk
%nprocshared=24
%mem=20GB
#p    LC-wPBE/6-311++g(d,p) IOP(3/107=0156600000) IOP(3/108=0156600000) NMR=GIAO SCF=(qc,MAXCYCLE=512) 

Input Generated at 2018-12-13 20:33:10.118116 for Br_t1_delta-0-nicsxy-backbone-sigma

0 3 
C		2.85115  -0.38994  -0.16337  
C		2.64497  1.02941  -0.16937  
C		3.66074  1.9484  -0.43644  
C		4.91288  1.41923  -0.73529  
C		5.15257  0.03636  -0.78468  
C		4.12983  -0.86488  -0.50259  
C		1.56289  -1.01725  0.129  
C		0.69406  0.04774  0.25325  
H		3.46364  3.01785  -0.42591  
H		6.14434  -0.32853  -1.05101  
H		4.32683  -1.93426  -0.56929  
C		-0.69404  -0.04774  0.25326  
C		-1.56287  1.01725  0.12903  
C		-2.85114  0.38994  -0.16331  
C		-2.64496  -1.02941  -0.16931  
C		-4.12982  0.86489  -0.50249  
C		-3.66074  -1.9484  -0.43636  
C		-5.15258  -0.03636  -0.78455  
H		-4.32682  1.93427  -0.56918  
C		-4.91289  -1.41923  -0.73518  
H		-3.46364  -3.01784  -0.42584  
H		-6.14435  0.32854  -1.05086  
C		-0.51337  -2.47625  0.02082  
C		1.70945  -3.52683  0.40225  
C		2.99303  -3.60226  0.96838  
S		1.10946  -5.15228  0.08127  
C		3.4732  -4.91623  1.10984  
H		3.52316  -2.71974  1.32002  
C		2.58139  -5.87478  0.65875  
H		4.44084  -5.16821  1.54395  
C		0.96003  -2.33963  0.16718  
C		2.75681  -7.36077  0.65193  
H		1.97738  -7.86336  1.2446  
H		2.70711  -7.76968  -0.3689  
H		3.73332  -7.62707  1.07772  
O		-1.0853  -3.55272  -0.14156  
C		0.51339  2.47625  0.02082  
C		-1.70943  3.52684  0.40226  
C		-2.99303  3.60225  0.96837  
S		-1.10945  5.15229  0.08129  
C		-3.47321  4.91622  1.10983  
H		-3.52316  2.71972  1.32001  
C		-2.5814  5.87477  0.65876  
H		-4.44085  5.16819  1.54394  
C		-0.96001  2.33963  0.16719  
C		-2.75683  7.36076  0.65193  
H		-1.97734  7.86337  1.2445  
H		-2.70725  7.76965  -0.36891  
H		-3.7333  7.62706  1.07782  
O		1.08531  3.55273  -0.14159  
N		-1.28546  -1.27651  0.09286  
N		1.28548  1.27651  0.09284  
Br		6.35105  2.61602  -1.11497  
Br		-6.35107  -2.61601  -1.11482  
H		2.60306  -0.41055  -1.13189  
H		2.39687  1.0088  -1.13788  
H		1.31479  -1.03786  -0.83952  
H		0.44596  0.02713  -0.71527  
H		3.46408  1.91096  -1.41619  
H		4.71622  1.38179  -1.71505  
H		4.95591  -0.00108  -1.76444  
H		3.93316  -0.90233  -1.48235  
H		-0.71377  -0.11497  -0.74428  
H		-0.53311  -2.54347  -0.97672  
H		-1.10503  -3.61995  -1.1391  
H		0.9403  -2.40686  -0.83036  
H		-1.54315  1.08448  -0.86851  
H		0.53311  2.54348  -0.97673  
H		1.10503  3.61995  -1.13913  
H		-0.9403  2.40686  -0.83035  
H		-2.6545  0.42739  -1.14307  
H		-2.44831  -0.99196  -1.14907  
H		-3.88176  0.88551  -1.47101  
H		-3.41267  -1.92778  -1.40488  
H		-4.90451  -0.01574  -1.75308  
H		-4.66482  -1.39861  -1.7037  
bq		5.45449  0.76284  0.88649  
bq		5.26352  0.72969  0.93583  
bq		5.07256  0.69654  0.98516  
bq		4.8816  0.66338  1.0345  
bq		4.69063  0.63023  1.08383  
bq		4.49967  0.59708  1.13317  
bq		4.31378  0.56481  1.18119  
bq		4.12326  0.52983  1.23097  
bq		3.93274  0.49485  1.28076  
bq		3.74222  0.45987  1.33054  
bq		3.5517  0.42489  1.38032  
bq		3.36118  0.38991  1.43011  
bq		3.17066  0.35493  1.47989  
bq		3.08239  0.38339  1.49922  
bq		2.88833  0.35648  1.53942  
bq		2.69427  0.32956  1.57963  
bq		2.50022  0.30264  1.61984  
bq		2.30616  0.27572  1.66005  
bq		2.14204  0.25295  1.69405  
bq		2.00208  0.11407  1.72757  
bq		1.86213  -0.02482  1.76108  
bq		1.72217  -0.1637  1.7946  
bq		1.58222  -0.30259  1.82811  
bq		1.09495  -0.59904  1.88695  
bq		0.93078  -0.7131  1.88069  
bq		0.76662  -0.82716  1.87444  
bq		0.60245  -0.94122  1.86818  
bq		0.43828  -1.05528  1.86193  
bq		0.27411  -1.16934  1.85567  
bq		0.10994  -1.2834  1.84942  
bq		0.08717  -1.29923  1.84855  
bq		-0.07789  -1.4111  1.83304  
bq		-0.24294  -1.52298  1.81752  
bq		-0.408  -1.63485  1.80201  
bq		-0.57305  -1.74673  1.78649  
bq		-0.73811  -1.85861  1.77098  
bq		-0.90316  -1.97048  1.75546  

