%rwf=Cl_s0-0-nicsxy-backbone-sigma.rwf
%nosave
%chk=Cl_s0-0-nicsxy-backbone-sigma.chk
%nprocshared=24
%mem=20GB
#p     LC-wPBE/6-311++g(d,p) IOP(3/107=0158500000) IOP(3/108=0158500000) NMR=GIAO SCF=(qc,MAXCYCLE=512) 

Input Generated at 2018-12-13 20:32:53.441362 for Cl_s0-0-nicsxy-backbone-sigma

0 1 
C		2.26184  1.81167  0.07132  
C		1.08856  2.629  0.0669  
C		1.12115  4.00514  -0.12153  
C		2.38143  4.57437  -0.32572  
C		3.55346  3.81043  -0.3535  
C		3.49575  2.42971  -0.15323  
C		1.83035  0.40739  0.24126  
C		0.42298  0.52206  0.33743  
H		0.20603  4.59335  -0.12297  
H		4.50979  4.30194  -0.53054  
H		4.41149  1.84076  -0.18411  
C		-0.42301  -0.5221  0.33744  
C		-1.83038  -0.40743  0.24126  
C		-2.26185  -1.81172  0.07133  
C		-1.08857  -2.62905  0.06698  
C		-3.49575  -2.42977  -0.15326  
C		-1.12115  -4.00519  -0.12141  
C		-3.55345  -3.81051  -0.35349  
H		-4.4115  -1.84084  -0.18421  
C		-2.38142  -4.57444  -0.32563  
H		-0.20603  -4.5934  -0.12281  
H		-4.50976  -4.30202  -0.53056  
C		1.43878  -2.07687  0.14445  
C		3.78336  -1.1615  0.30903  
C		4.72495  -0.42679  1.01189  
S		4.55531  -2.51395  -0.48886  
C		6.04503  -0.92581  0.8822  
H		4.45354  0.42121  1.63946  
C		6.12544  -2.04292  0.0778  
H		6.91324  -0.48989  1.37665  
C		2.35499  -0.88767  0.23336  
C		7.34433  -2.83841  -0.28044  
H		7.25491  -3.88759  0.03845  
H		7.52847  -2.83629  -1.36539  
H		8.22681  -2.40925  0.21281  
O		1.83524  -3.22908  -0.02025  
C		-1.4388  2.07683  0.14438  
C		-3.78338  1.16151  0.30903  
C		-4.72495  0.42693  1.01205  
S		-4.55531  2.51391  -0.48894  
C		-6.04502  0.92597  0.88236  
H		-4.45354  -0.42098  1.63973  
C		-6.12543  2.04299  0.07782  
H		-6.91322  0.49015  1.37691  
C		-2.35501  0.88763  0.23333  
C		-7.34431  2.83847  -0.28046  
H		-7.25485  3.88769  0.0383  
H		-7.5285  2.83623  -1.3654  
H		-8.22678  2.40939  0.21288  
O		-1.83525  3.22902  -0.0204  
N		0.05277  -1.8019  0.24145  
N		-0.05279  1.80186  0.24139  
Cl		-2.49104  -6.30178  -0.56278  
Cl		2.49107  6.30171  -0.56291  
H		2.365  1.94833  1.05655  
H		1.19172  2.76567  1.05213  
H		1.93351  0.54405  1.22649  
H		0.52615  0.65872  1.32266  
H		1.19459  4.10729  0.87053  
H		2.45488  4.67652  0.66633  
H		3.6269  3.91258  0.63855  
H		3.56919  2.53186  0.83882  
H		-0.46451  -0.47507  1.33547  
H		1.39728  -2.02984  1.14248  
H		1.79374  -3.18205  0.97778  
H		2.31348  -0.84064  1.23139  
H		-1.78888  -0.45443  1.23929  
H		-1.3973  2.02983  1.14241  
H		-1.79376  3.18203  0.97764  
H		-2.31351  0.84064  1.23137  
H		-2.33531  -1.91385  1.06339  
H		-1.16203  -2.73118  1.05903  
H		-3.59895  -2.56641  0.83197  
H		-1.22435  -4.14183  0.86382  
H		-3.65665  -3.94714  0.63174  
H		-2.48463  -4.71107  0.6596  
bq		2.79207  3.96007  -2.01451  
bq		2.68327  3.79575  -1.98044  
bq		2.57447  3.63143  -1.94637  
bq		2.46567  3.4671  -1.91231  
bq		2.35687  3.30278  -1.87824  
bq		2.24807  3.13846  -1.84418  
bq		2.14165  2.97773  -1.81085  
bq		2.03444  2.8124  -1.7766  
bq		1.92723  2.64708  -1.74234  
bq		1.82001  2.48176  -1.70809  
bq		1.7128  2.31643  -1.67383  
bq		1.60559  2.15111  -1.63958  
bq		1.55034  2.04668  -1.61738  
bq		1.43453  1.88557  -1.59226  
bq		1.31871  1.72447  -1.56714  
bq		1.20289  1.56336  -1.54202  
bq		1.08707  1.40225  -1.5169  
bq		0.98533  1.26074  -1.49483  
bq		0.98872  1.06177  -1.47479  
bq		0.9921  0.86281  -1.45475  
bq		0.99548  0.66384  -1.4347  
bq		0.99886  0.46488  -1.41466  
bq		1.05612  0.54462  -1.40731  
bq		1.02617  0.34695  -1.41286  
bq		0.99621  0.14928  -1.41841  
bq		0.96626  -0.04838  -1.42396  
bq		0.9363  -0.24605  -1.42951  
bq		0.90635  -0.44372  -1.43506  
bq		0.87639  -0.64138  -1.44061  
bq		0.8756  -0.64662  -1.44076  
bq		0.84304  -0.84369  -1.45099  
bq		0.81049  -1.04076  -1.46121  
bq		0.77793  -1.23783  -1.47144  
bq		0.74538  -1.43489  -1.48167  
bq		0.71282  -1.63196  -1.4919  
bq		0.68026  -1.82903  -1.50212  

