%rwf=Cl_t1_delta-0-nicsxy-backbone-sigma.rwf
%nosave
%chk=Cl_t1_delta-0-nicsxy-backbone-sigma.chk
%nprocshared=24
%mem=20GB
#p    LC-wPBE/6-311++g(d,p) IOP(3/107=0158500000) IOP(3/108=0158500000) NMR=GIAO SCF=(qc,MAXCYCLE=512) 

Input Generated at 2018-12-13 20:33:01.865033 for Cl_t1_delta-0-nicsxy-backbone-sigma

0 3 
C		2.22507  1.82475  -0.19614  
C		1.04441  2.63881  -0.20236  
C		1.06132  4.00785  -0.47003  
C		2.30038  4.56642  -0.76918  
C		3.477  3.80144  -0.81769  
C		3.4428  2.4393  -0.53543  
C		1.80858  0.45364  0.09669  
C		0.43725  0.54119  0.22153  
H		0.14541  4.59414  -0.46129  
H		4.41675  4.28466  -1.08456  
H		4.36077  1.85658  -0.60179  
C		-0.43723  -0.54114  0.22155  
C		-1.80855  -0.4536  0.09673  
C		-2.22506  -1.82471  -0.19605  
C		-1.04439  -2.63877  -0.20229  
C		-3.4428  -2.43926  -0.53528  
C		-1.06132  -4.00782  -0.46993  
C		-3.47701  -3.80141  -0.8175  
H		-4.36077  -1.85655  -0.60162  
C		-2.30039  -4.56639  -0.76902  
H		-0.14541  -4.59411  -0.4612  
H		-4.41677  -4.28464  -1.08433  
C		1.46558  -2.06062  -0.01192  
C		3.74789  -1.14611  0.36887  
C		4.6762  -0.25676  0.9351  
S		4.53143  -2.69091  0.04646  
C		5.96625  -0.79837  1.07555  
H		4.38975  0.73179  1.28752  
C		6.06229  -2.10359  0.6235  
H		6.80922  -0.2606  1.50961  
C		2.36773  -0.88781  0.13445  
C		7.27106  -2.98559  0.61544  
H		7.10971  -3.89927  1.20741  
H		7.53666  -3.29918  -0.40573  
H		8.1305  -2.4511  1.04136  
O		1.86555  -3.21196  -0.17487  
C		-1.46556  2.06067  -0.01188  
C		-3.74787  1.14613  0.36889  
C		-4.67618  0.25674  0.93506  
S		-4.53143  2.69094  0.04654  
C		-5.96624  0.79833  1.07551  
H		-4.38973  -0.73183  1.28743  
C		-6.0623  2.10356  0.6235  
H		-6.80922  0.26052  1.50952  
C		-2.36771  0.88785  0.13448  
C		-7.27109  2.98553  0.61545  
H		-7.10975  3.89923  1.2074  
H		-7.53671  3.2991  -0.40572  
H		-8.13051  2.45104  1.04139  
O		-1.86553  3.21199  -0.17496  
N		0.06118  -1.81051  0.06059  
N		-0.06116  1.81055  0.06057  
Cl		-2.39298  -6.27943  -1.11816  
Cl		2.39295  6.27944  -1.11837  
H		2.37857  2.02107  0.77231  
H		1.19791  2.83513  0.76609  
H		1.96208  0.64996  1.06514  
H		0.59075  0.73751  1.18998  
H		1.16792  4.17791  0.50962  
H		2.40698  4.73648  0.21047  
H		3.5836  3.9715  0.16196  
H		3.5494  2.60936  0.44422  
H		-0.47341  -0.4807  1.21907  
H		1.42939  -2.00018  0.9856  
H		1.82936  -3.15151  0.82265  
H		2.33155  -0.82736  1.13197  
H		-1.77235  -0.51404  1.09425  
H		-1.42935  2.00023  0.98563  
H		-1.82932  3.15155  0.82256  
H		-2.3315  0.82741  1.13199  
H		-2.33163  -1.99475  0.78361  
H		-1.15097  -2.80881  0.77737  
H		-3.59626  -2.63556  0.43318  
H		-1.21479  -4.20411  0.49854  
H		-3.63048  -3.99771  0.15096  
H		-2.45386  -4.76269  0.19944  
bq		2.62774  3.85018  -2.4398  
bq		2.52222  3.68762  -2.39041  
bq		2.41669  3.52506  -2.34102  
bq		2.31117  3.3625  -2.29163  
bq		2.20565  3.19994  -2.24224  
bq		2.10013  3.03738  -2.19285  
bq		1.99754  2.87935  -2.14484  
bq		1.89364  2.71588  -2.095  
bq		1.78974  2.55242  -2.04515  
bq		1.68584  2.38896  -1.99531  
bq		1.58194  2.2255  -1.94547  
bq		1.47803  2.06203  -1.89562  
bq		1.37413  1.89857  -1.84578  
bq		1.45352  1.94267  -1.86466  
bq		1.34127  1.78212  -1.82435  
bq		1.22903  1.62157  -1.78405  
bq		1.11678  1.46102  -1.74374  
bq		1.00454  1.30047  -1.70344  
bq		0.90961  1.16469  -1.66935  
bq		0.91622  0.96764  -1.63575  
bq		0.92283  0.77059  -1.60216  
bq		0.92944  0.57354  -1.56856  
bq		0.93605  0.3765  -1.53497  
bq		1.06137  0.60016  -1.53666  
bq		1.03328  0.40224  -1.54296  
bq		1.0052  0.20432  -1.54925  
bq		0.97711  0.0064  -1.55554  
bq		0.94903  -0.19151  -1.56184  
bq		0.92094  -0.38943  -1.56813  
bq		0.89286  -0.58735  -1.57442  
bq		0.88897  -0.6148  -1.57529  
bq		0.85869  -0.81188  -1.59085  
bq		0.82841  -1.00896  -1.60641  
bq		0.79813  -1.20604  -1.62197  
bq		0.76785  -1.40312  -1.63752  
bq		0.73757  -1.6002  -1.65308  
bq		0.70729  -1.79729  -1.66864  

