%rwf=CNBr_t1_delta-0-nicsxy-backbone-sigma.rwf
%nosave
%chk=CNBr_t1_delta-0-nicsxy-backbone-sigma.chk
%nprocshared=24
%mem=20GB
#p     LC-wHPBE/6-311++g(d,p) IOP(3/107=0154300000) IOP(3/108=0154300000) NMR=GIAO SCF=(qc,MAXCYCLE=512) 

Input Generated at 2018-12-13 20:33:28.648410 for CNBr_t1_delta-0-nicsxy-backbone-sigma

0 3 
C		-2.08672  -1.98989  -0.16427  
C		-0.84664  -2.71604  -0.15844  
C		-0.7649  -4.08268  -0.40568  
C		-1.96169  -4.7519  -0.70082  
C		-3.19247  -4.05645  -0.75805  
C		-3.25898  -2.69447  -0.49633  
C		-1.77498  -0.59145  0.11198  
C		-0.39918  -0.5748  0.23447  
H		0.19303  -4.59826  -0.38676  
H		-4.09706  -4.60674  -1.01836  
H		-4.21486  -2.17756  -0.57075  
C		0.39075  0.5702  0.22316  
C		1.76563  0.58357  0.09902  
C		2.07834  1.97867  -0.20996  
C		0.83974  2.70161  -0.22684  
C		3.24732  2.67777  -0.5572  
C		0.75444  4.06527  -0.51249  
C		3.18013  4.03513  -0.85785  
H		4.20653  2.16464  -0.61572  
C		1.94899  4.71043  -0.81887  
H		-0.2046  4.57806  -0.50976  
H		4.08382  4.57976  -1.13065  
C		-1.62133  1.94067  -0.02884  
C		-3.82711  0.86359  0.37399  
C		-4.68551  -0.08611  0.95524  
S		-4.7239  2.34362  0.04009  
C		-6.0105  0.36059  1.09729  
H		-4.32585  -1.04663  1.31814  
C		-6.20463  1.65096  0.6319  
H		-6.80951  -0.23264  1.54214  
C		-2.43379  0.70607  0.13518  
C		-7.47538  2.44047  0.61965  
H		-7.37604  3.37685  1.1894  
H		-7.77377  2.71047  -0.40506  
H		-8.28846  1.85358  1.06709  
O		-2.10555  3.05671  -0.20626  
C		1.61387  -1.94946  0.02317  
C		3.82105  -0.86138  0.38443  
C		4.68157  0.10085  0.9397  
S		4.71697  -2.34652  0.07436  
C		6.00836  -0.34095  1.08081  
H		4.32275  1.06836  1.28441  
C		6.20079  -1.64029  0.64005  
H		6.80986  0.26217  1.50748  
C		2.42453  -0.71014  0.1528  
C		7.47256  -2.42831  0.63423  
H		7.37892  -3.35271  1.22408  
H		7.76313  -2.71928  -0.38693  
H		8.28827  -1.8312  1.06295  
O		2.09671  -3.07053  -0.12357  
N		-0.20136  1.79654  0.04588  
N		0.19307  -1.80332  0.09188  
C		-1.9373  -6.15973  -0.96572  
N		-1.92858  -7.30491  -1.18066  
Br		1.91018  6.57513  -1.22381  
H		-2.22712  -2.18293  0.80682  
H		-0.98704  -2.90909  0.81265  
H		-1.91538  -0.7845  1.08307  
H		-0.53958  -0.76784  1.20556  
H		-0.85876  -4.24702  0.57625  
H		-2.05554  -4.91624  0.28111  
H		-3.28633  -4.22079  0.22388  
H		-3.35284  -2.85881  0.4856  
H		0.43016  0.52543  1.22138  
H		-1.58191  1.8959  0.96938  
H		-2.06613  3.01193  0.79196  
H		-2.39437  0.66129  1.1334  
H		1.72545  0.65325  1.09578  
H		1.57369  -1.87978  1.01993  
H		2.05653  -3.00085  0.87318  
H		2.38435  -0.64046  1.14956  
H		2.17075  2.16827  0.76754  
H		0.93214  2.89121  0.75067  
H		3.3848  2.8977  0.40858  
H		0.89193  4.2852  0.45329  
H		3.31761  4.25506  0.10793  
H		2.08648  4.93036  0.14691  
bq		-2.3384  -4.07599  -2.38029  
bq		-2.2452  -3.90541  -2.33321  
bq		-2.152  -3.73483  -2.28612  
bq		-2.05881  -3.56425  -2.23904  
bq		-1.96561  -3.39367  -2.19196  
bq		-1.87241  -3.22309  -2.14487  
bq		-1.77988  -3.05372  -2.09812  
bq		-1.68806  -2.88253  -2.05055  
bq		-1.59624  -2.71134  -2.00299  
bq		-1.50442  -2.54015  -1.95542  
bq		-1.4126  -2.36896  -1.90785  
bq		-1.32077  -2.19777  -1.86028  
bq		-1.22895  -2.02658  -1.81271  
bq		-1.30713  -2.07359  -1.83064  
bq		-1.20717  -1.9046  -1.79252  
bq		-1.10721  -1.73562  -1.7544  
bq		-1.00725  -1.56664  -1.71629  
bq		-0.90729  -1.39765  -1.67817  
bq		-0.82334  -1.25572  -1.64616  
bq		-0.84483  -1.05931  -1.61519  
bq		-0.86633  -0.86289  -1.58422  
bq		-0.88783  -0.66648  -1.55325  
bq		-0.90932  -0.47006  -1.52228  
bq		-1.01876  -0.70159  -1.52127  
bq		-1.00566  -0.5022  -1.52988  
bq		-0.99257  -0.30282  -1.5385  
bq		-0.97947  -0.10343  -1.54712  
bq		-0.96637  0.09595  -1.55574  
bq		-0.95327  0.29533  -1.56436  
bq		-0.94017  0.49472  -1.57297  
bq		-0.93833  0.52274  -1.57419  
bq		-0.92291  0.72132  -1.59227  
bq		-0.90749  0.91991  -1.61036  
bq		-0.89207  1.11849  -1.62844  
bq		-0.87666  1.31707  -1.64653  
bq		-0.86124  1.51566  -1.66462  
bq		-0.84582  1.71424  -1.6827  

