%rwf=F_s0-0-nicsxy-backbone-sigma.rwf
%nosave
%chk=F_s0-0-nicsxy-backbone-sigma.chk
%nprocshared=24
%mem=20GB
#p     LC-wPBE/6-311++g(d,p) IOP(3/107=0162500000) IOP(3/108=0162500000) NMR=GIAO SCF=(qc,MAXCYCLE=512) 

Input Generated at 2018-12-13 20:33:55.833480 for F_s0-0-nicsxy-backbone-sigma

0 1 
C		1.9654  2.12994  0.06094  
C		0.68176  2.76161  0.05722  
C		0.50664  4.12672  -0.13194  
C		1.67219  4.86148  -0.33536  
C		2.94691  4.29794  -0.36478  
C		3.09472  2.92417  -0.16369  
C		1.74895  0.6767  0.22937  
C		0.33998  0.57908  0.32741  
H		-0.47987  4.58547  -0.13684  
H		3.80872  4.94074  -0.54308  
H		4.08674  2.47579  -0.19397  
C		-0.33999  -0.57909  0.32742  
C		-1.74896  -0.6767  0.22937  
C		-1.9654  -2.12995  0.06096  
C		-0.68176  -2.76162  0.05726  
C		-3.09472  -2.92418  -0.16368  
C		-0.50664  -4.12673  -0.13188  
C		-2.94691  -4.29796  -0.36475  
H		-4.08674  -2.47581  -0.19399  
C		-1.67218  -4.8615  -0.33531  
H		0.47987  -4.58549  -0.13675  
H		-3.80871  -4.94076  -0.54305  
C		1.73328  -1.8378  0.13393  
C		3.91523  -0.58073  0.28957  
C		4.73733  0.2801  0.99789  
S		4.87901  -1.79087  -0.52633  
C		6.1175  -0.01179  0.85852  
H		4.3432  1.07103  1.6348  
C		6.36246  -1.09463  0.04141  
H		6.91205  0.54512  1.35523  
C		2.46062  -0.52482  0.21969  
C		7.68589  -1.6936  -0.32825  
H		7.76077  -2.74432  -0.01088  
H		7.85906  -1.66216  -1.4144  
H		8.496  -1.13491  0.15924  
O		2.29686  -2.91815  -0.0298  
C		-1.73328  1.83779  0.13387  
C		-3.91523  0.58072  0.28954  
C		-4.73734  -0.28007  0.99789  
S		-4.87901  1.79085  -0.52639  
C		-6.11751  0.01183  0.85851  
H		-4.34322  -1.07097  1.63483  
C		-6.36247  1.09464  0.04137  
H		-6.91206  -0.54507  1.35524  
C		-2.46062  0.52481  0.21966  
C		-7.68589  1.6936  -0.32832  
H		-7.76074  2.74434  -0.01104  
H		-7.85909  1.66207  -1.41446  
H		-8.496  1.13496  0.15923  
O		-2.29686  2.91814  -0.02986  
N		0.32191  -1.77338  0.23224  
N		-0.32191  1.77338  0.2322  
F		1.55674  6.20056  -0.52265  
F		-1.55673  -6.20058  -0.52257  
H		2.0471  2.28114  1.04606  
H		0.76346  2.91282  1.04234  
H		1.83065  0.8279  1.21449  
H		0.42169  0.73029  1.31253  
H		0.56473  4.2382  0.86013  
H		1.73029  4.97296  0.6567  
H		3.00501  4.40942  0.62729  
H		3.15281  3.03565  0.82838  
H		-0.38932  -0.53926  1.32541  
H		1.68395  -1.79797  1.13191  
H		2.24753  -2.87831  0.96819  
H		2.41129  -0.48498  1.21768  
H		-1.69964  -0.71652  1.22736  
H		-1.68396  1.79798  1.13186  
H		-2.24754  2.87832  0.96813  
H		-2.4113  0.48499  1.21765  
H		-2.02351  -2.24141  1.05302  
H		-0.73987  -2.87309  1.04932  
H		-3.17643  -3.07538  0.82144  
H		-0.58835  -4.27793  0.85324  
H		-3.02862  -4.44916  0.62037  
H		-1.7539  -5.01269  0.64981  
bq		2.17066  4.32266  -2.02478  
bq		2.08701  4.14424  -1.99056  
bq		2.00335  3.96583  -1.95635  
bq		1.9197  3.78742  -1.92213  
bq		1.83605  3.609  -1.88792  
bq		1.75239  3.43059  -1.8537  
bq		1.67238  3.25992  -1.82097  
bq		1.59074  3.08061  -1.7866  
bq		1.5091  2.90129  -1.75222  
bq		1.42746  2.72198  -1.71785  
bq		1.34583  2.54267  -1.68347  
bq		1.26419  2.36335  -1.6491  
bq		1.22481  2.25626  -1.62743  
bq		1.13445  2.07961  -1.60235  
bq		1.04409  1.90296  -1.57727  
bq		0.95373  1.7263  -1.55218  
bq		0.86337  1.54965  -1.5271  
bq		0.78407  1.39463  -1.50509  
bq		0.81724  1.1984  -1.48519  
bq		0.85041  1.00218  -1.46529  
bq		0.88357  0.80595  -1.44539  
bq		0.91674  0.60973  -1.4255  
bq		0.96063  0.69557  -1.41819  
bq		0.96057  0.49565  -1.42373  
bq		0.96051  0.29573  -1.42927  
bq		0.96046  0.0958  -1.43481  
bq		0.9604  -0.10412  -1.44035  
bq		0.96034  -0.30404  -1.44589  
bq		0.96028  -0.50397  -1.45144  
bq		0.96028  -0.50887  -1.45157  
bq		0.9576  -0.7086  -1.46164  
bq		0.95491  -0.90833  -1.4717  
bq		0.95222  -1.10805  -1.48176  
bq		0.94954  -1.30778  -1.49183  
bq		0.94685  -1.50751  -1.50189  
bq		0.94416  -1.70724  -1.51196  

