%rwf=H_t1_delta-0-nicsxy-backbone-sigma.rwf
%nosave
%chk=H_t1_delta-0-nicsxy-backbone-sigma.chk
%nprocshared=24
%mem=20GB
#p    LC-wPBE/6-311++g(d,p) IOP(3/107=0162800000) IOP(3/108=0162800000) NMR=GIAO SCF=(qc,MAXCYCLE=512) 

Input Generated at 2018-12-13 20:34:04.254041 for H_t1_delta-0-nicsxy-backbone-sigma

0 3 
C		-1.7775  -2.26665  -0.24386  
C		-0.44893  -2.80611  -0.25059  
C		-0.17799  -4.14849  -0.51818  
C		-1.26106  -4.97295  -0.81798  
C		-2.57056  -4.46445  -0.86103  
C		-2.83777  -3.12666  -0.58018  
C		-1.66655  -0.83646  0.04802  
C		-0.30903  -0.62396  0.16956  
H		0.84681  -4.51455  -0.50668  
H		-1.0842  -6.02707  -1.03802  
H		-3.39514  -5.129  -1.12524  
H		-3.85799  -2.74973  -0.64371  
C		0.30901  0.62393  0.16956  
C		1.66654  0.83642  0.04804  
C		1.77749  2.26662  -0.24384  
C		0.44892  2.80608  -0.25059  
C		2.83777  3.12663  -0.58013  
C		0.17799  4.14846  -0.51818  
C		2.57057  4.46442  -0.86098  
H		3.858  2.7497  -0.64363  
C		1.26107  4.97291  -0.81795  
H		-0.84681  4.51452  -0.5067  
H		3.39516  5.12896  -1.12517  
H		1.08422  6.02704  -1.038  
C		-1.87532  1.69331  -0.0589  
C		-3.90419  0.30616  0.33351  
C		-4.61389  -0.76254  0.90371  
S		-5.00542  1.64543  0.02096  
C		-5.98999  -0.51237  1.05505  
H		-4.11812  -1.66744  1.24804  
C		-6.36898  0.74104  0.60773  
H		-6.69343  -1.22058  1.49305  
C		-2.50202  0.35214  0.08937  
C		-7.73988  1.3415  0.61124  
H		-7.77554  2.26689  1.20588  
H		-8.07494  1.59253  -0.40673  
H		-8.46035  0.63298  1.04096  
O		-2.51922  2.72879  -0.22037  
C		1.87531  -1.69335  -0.05885  
C		3.90418  -0.30617  0.33351  
C		4.61387  0.76257  0.90364  
S		5.00542  -1.64545  0.02105  
C		5.98998  0.51243  1.05498  
H		4.11809  1.66749  1.24791  
C		6.36898  -0.741  0.60774  
H		6.69342  1.22068  1.49292  
C		2.50201  -0.35217  0.08939  
C		7.73989  -1.34144  0.61125  
H		7.77557  -2.26684  1.20586  
H		8.07497  -1.59244  -0.40673  
H		8.46034  -0.63291  1.04099  
O		2.5192  -2.72882  -0.22038  
N		-0.45197  1.75467  0.01  
N		0.45196  -1.75471  0.01002  
H		-1.88394  -2.49053  0.72492  
H		-0.55537  -3.02999  0.7182  
H		-1.77299  -1.06034  1.01681  
H		-0.41547  -0.84784  1.13835  
H		-0.2438  -4.33613  0.46185  
H		-1.32688  -5.16059  0.16205  
H		-2.63638  -4.65209  0.119  
H		-2.90359  -3.3143  0.39985  
H		0.35502  0.57324  1.16721  
H		-1.82931  1.64263  0.93876  
H		-2.47321  2.67811  0.77729  
H		-2.45601  0.30146  1.08703  
H		1.62053  0.88711  1.04569  
H		1.82929  -1.64266  0.93881  
H		2.47319  -2.67813  0.77728  
H		2.45599  -0.30148  1.08705  
H		1.84329  2.45426  0.73619  
H		0.51472  2.99371  0.72944  
H		2.9442  3.3505  0.38866  
H		0.28441  4.37233  0.45061  
H		2.67699  4.68829  0.10781  
H		1.36749  5.19679  0.15084  
bq		-1.73486  -4.3381  -2.48644  
bq		-1.66744  -4.15634  -2.43728  
bq		-1.60001  -3.97458  -2.38813  
bq		-1.53259  -3.79281  -2.33897  
bq		-1.46517  -3.61105  -2.28981  
bq		-1.39775  -3.42929  -2.24065  
bq		-1.33135  -3.25029  -2.19224  
bq		-1.26498  -3.06825  -2.14266  
bq		-1.1986  -2.88622  -2.09309  
bq		-1.13222  -2.70419  -2.04351  
bq		-1.06585  -2.52215  -1.99394  
bq		-0.99947  -2.34012  -1.94436  
bq		-0.9331  -2.15808  -1.89479  
bq		-1.00132  -2.2174  -1.91328  
bq		-0.92647  -2.03629  -1.87333  
bq		-0.85162  -1.85518  -1.83337  
bq		-0.77677  -1.67406  -1.79342  
bq		-0.70192  -1.49295  -1.75347  
bq		-0.63812  -1.33859  -1.71942  
bq		-0.6871  -1.14758  -1.68602  
bq		-0.73607  -0.95657  -1.65262  
bq		-0.78505  -0.76555  -1.61922  
bq		-0.83402  -0.57454  -1.58582  
bq		-0.90957  -0.81639  -1.58722  
bq		-0.92501  -0.61708  -1.59333  
bq		-0.94045  -0.41777  -1.59944  
bq		-0.9559  -0.21846  -1.60555  
bq		-0.97134  -0.01915  -1.61166  
bq		-0.98679  0.18016  -1.61777  
bq		-1.00223  0.37947  -1.62387  
bq		-1.00442  0.40776  -1.62474  
bq		-1.01752  0.60673  -1.64023  
bq		-1.03062  0.8057  -1.65571  
bq		-1.04373  1.00467  -1.67119  
bq		-1.05683  1.20364  -1.68667  
bq		-1.06993  1.40261  -1.70216  
bq		-1.08303  1.60158  -1.71764  

