Ge2 H54 C44                             
1.000000
   8.76780300000000   0.00000000000000   1.58547700000000
   3.14635700000000   6.80679000000000   0.41005800000000
   0.00000000000000   0.00000000000000  17.16000000000000
Ge H C 
2 54 44 
Cartesian(100) [A2B54C44] 
  10.52775785420230   5.85791373531582   7.72866738216365  Ge    
   1.43059317448025   0.95106193705873  11.41988771080395  Ge    
   4.80732282612383   5.53040907855739   3.22892147944752  H     
   5.90326776751569   0.52995547256631   3.54360004580754  H     
   6.01434998440817   6.28521411906764  15.61018843754011  H     
   7.10612957355417   1.27426983668923  15.92189764759997  H     
   7.09414846101183   4.66636901291000   3.67716636344803  H     
   3.62885226472566   1.39577131979418   3.12058980245334  H     
   9.35946880247244   4.14883082514544   2.84689423963166  H     
   8.28601039329780   5.41157218719275  16.03411264410448  H     
   4.81268861554630   2.13401160188426  15.47300291255242  H     
   1.96564001316229   2.30574184251152   1.54013221334590  H     
   9.94784097743138   4.50085938674389  17.61510587356356  H     
   2.55176374734075   2.65791246875996  16.30872762125387  H     
   8.43468372625357   4.65901091914590   8.43828562145681  H     
   3.14729866742821   4.57816048037402   7.82342621893773  H     
   8.92978815787308   0.67953655880093   8.47189592765558  H     
   3.09013188260832   6.24784838590020  10.45476934340617  H     
   9.27223994507008   2.57115093366120  11.31816510443844  H     
   3.53298979707118   2.08037390434153  12.15676931925920  H     
   3.77202192391574   3.96490497179299  11.42736774193791  H     
   3.16988506418271   5.10137241227854  12.64067833584457  H     
   4.91495499991067   4.81344552935325  12.48245574679380  H     
   5.24722356883659   6.56719714995312   9.11269164886797  H     
   4.64871693103933   4.90979119858308   9.10713469899068  H     
   5.99867739349507   5.34051374071082  10.13589904936930  H     
   7.15574882441297   6.39914039446055  12.82060208515573  H     
   5.35175787725608   0.50552072699385  11.71088176252194  H     
   7.48488195387589   6.32717044359817  11.08298463039627  H     
   4.66495416415884   2.48321056574001   9.86817198560656  H     
   2.99430644834256   3.03422952662345   9.92972193793513  H     
   3.37341188310724   1.51151364830970   9.13440283270218  H     
   9.24201657442348   3.69791053391449  14.18684523898257  H     
   8.85073385392182   4.63362691138351  12.72538171529651  H     
  10.49144308255129   4.04088463603661  12.97524212460689  H     
   6.93527340021802   2.92948091465552  12.17199059468468  H     
   7.36244590497423   2.12074508687144  13.70226570302841  H     
   7.30132023361573   1.20094719011075  12.18817168631743  H     
   6.99607407468683   4.72153319048612   6.40642572409750  H     
   8.59639047344441   4.12485067228776   5.92482968789128  H     
   8.15070400939223   5.81082482265579   5.59131728622888  H     
   4.58416997109306   0.01038910299118   8.76692596825126  H     
   6.65170767774375   6.41253441416865   7.86783379323759  H     
   4.80564493859106   0.77228391326634   7.18256478222222  H     
   7.70838717863751   2.88690397745203   8.05976525607126  H     
   6.44906715853997   1.98540984413551   7.20072552628155  H     
   8.11006488379472   2.02710027795764   6.55534407358043  H     
   6.07909120438010   1.02829284615141   9.50601977656892  H     
   7.53689770099621   1.68034103818540  10.21168230030446  H     
  10.38067497593410   6.73875053547774  10.68036087709960  H     
   3.74367492857647   3.82184392874270   4.89565856837926  H     
   4.68377901223366   3.24158615089251   6.29357725530520  H     
   4.68481106409460   4.96251755970798   5.87474404380689  H     
   2.51346773221394   2.16744950683058   7.26307594958304  H     
   1.53047515044966   2.77742839088610   5.91892721650062  H     
   9.87813771447419   3.18265222748258   9.18185433433078  H     
  11.57274353617642   6.59859988548608   3.36330348912304  C     
   4.08955003831854   6.19746458303004   1.30600814305105  C     
   7.47757110081012   0.39177686649748   2.07490571639334  C     
   4.43750771370627   6.41556100002726  17.07371942917373  C     
   7.82564339157688   0.60873460058445  17.84186998537744  C     
   0.34910012120782   0.22465456683515  15.78620910521867  C     
   5.05035793951258   5.63448904037381   2.16992520620453  C     
   6.32266364821273   5.27260736879458   1.72831403166194  C     
   5.72807744603111   6.05639681276978  16.63824035873628  C     
   6.67084281350346   5.48950613486431  17.49517106650754  C     
   6.18767678762812   0.75157261083054   2.51307469923221  C     
   6.86187412388469   1.16954915939404  16.98064654592302  C     
   5.24282100140055   1.31657547841085   1.65732252487986  C     
   5.58928945301581   1.53076999547606  17.42265583126479  C     
   7.32621238508082   4.77011276349232   2.61490575310011  C     
   8.58652309472016   4.48601004514125   2.15600834206883  C     
   8.00121434494502   5.18852537458030  17.06545955535424  C     
   8.92668577415292   4.69159415890412  17.94544233785944  C     
   3.91321495786340   1.61908560907871   2.08903103714652  C     
   4.58381220979411   2.03280072015820  16.53732706739573  C     
   2.98702371930014   2.11602993342255   1.20982024441397  C     
   3.32519802856132   2.32042305158429  16.99861732605766  C     
  11.25088371990513   6.39241550326196   4.71876253639576  C     
   0.69981224036034   0.46820597891504  14.44435842969414  C     
  11.01236798304079   6.19050787918810   5.90536519329939  C     
   1.00895641163784   0.68741534215624  13.27213142292042  C     
   8.55937967545521   5.46005572048285   7.68860247563457  C     
   2.82627245863341   4.28589072414168   6.81050482307420  C     
   7.84241761530672   0.73391595534629   8.29897869731335  C     
   4.07895087156789   6.04776953815697  10.89606357074707  C     
   9.06042525874450   2.48527358608254  12.39864760604195  C     
   3.38572019311731   1.39222703634319  11.31038511958619  C     
   7.69821729194911   6.64088971657166   8.10425686431370  C     
   8.06266322004263   4.99291957899309   6.32277631079580  C     
   1.94896453840118   3.04018421624091   6.90115883012371  C     
   4.05135159000517   4.06576299826820   5.92374880505690  C     
   7.51461134048979   1.97417345088352   7.47370738857159  C     
   7.14370306026006   0.82968728733810   9.64288459383852  C     
   5.03654771866628   5.70757886307475   9.75794217663965  C     
   3.97603123390629   4.92053141041973  11.92004986998784  C     
   7.58540707738663   2.16250297259987  12.62674055080567  C     
   9.43747996871979   3.78332440428331  13.10654405006950  C     
   4.31217951989308   0.19067654884685  11.54010422585277  C     
   3.62552873897568   2.13935276172024   9.99481143438398  C     
