P4 H76 C68 S4 N4 O8 F24
1.0
11.217577 0.000000 -0.586514
0.000000 6.755000 0.000000
0.000000 0.000000 24.019600
P H C S N O F
4 76 68 4 4 8 24
direct
0.064630 0.833850 0.356230 P
0.435370 0.333850 0.143770 P
0.935370 0.166150 0.643770 P
0.564630 0.666150 0.856230 P
0.232517 0.208435 0.422873 H
0.111838 0.147923 0.495944 H
0.189789 0.144320 0.588431 H
0.392334 0.202202 0.607101 H
0.350387 0.111769 0.370995 H
0.474342 0.164832 0.344876 H
0.613257 0.336791 0.347588 H
0.306860 0.348080 0.304476 H
0.298051 0.459598 0.363116 H
0.814314 0.327829 0.523383 H
0.816940 0.384209 0.356170 H
0.919299 0.377256 0.443795 H
0.356124 0.781785 0.309697 H
0.339583 0.626760 0.259280 H
0.546569 0.675665 0.241080 H
0.466894 0.870154 0.230018 H
0.715324 0.871157 0.254943 H
0.721046 1.039195 0.301973 H
0.639634 1.070376 0.245980 H
0.267483 0.708435 0.077127 H
0.388162 0.647923 0.004056 H
0.310211 0.644320 -0.088431 H
0.107666 0.702202 -0.107101 H
0.149613 0.611769 0.129005 H
0.025658 0.664832 0.155124 H
-0.113257 0.836791 0.152412 H
0.193140 0.848080 0.195524 H
0.201949 0.959598 0.136884 H
-0.314314 0.827829 -0.023383 H
-0.316940 0.884209 0.143830 H
-0.419299 0.877256 0.056205 H
0.143876 1.281785 0.190303 H
0.160417 1.126760 0.240720 H
-0.046569 1.175665 0.258920 H
0.033106 1.370154 0.269982 H
-0.215324 1.371157 0.245057 H
-0.221046 1.539195 0.198027 H
-0.139634 1.570376 0.254020 H
0.767483 0.791565 0.577127 H
0.888162 0.852077 0.504056 H
0.810211 0.855680 0.411569 H
0.607666 0.797798 0.392899 H
0.649613 0.888231 0.629005 H
0.525658 0.835168 0.655124 H
0.386743 0.663209 0.652412 H
0.693140 0.651920 0.695524 H
0.701949 0.540402 0.636884 H
0.185686 0.672171 0.476617 H
0.183060 0.615791 0.643830 H
0.080701 0.622744 0.556205 H
0.643876 0.218215 0.690303 H
0.660417 0.373240 0.740720 H
0.453431 0.324335 0.758920 H
0.533106 0.129846 0.769982 H
0.284676 0.128843 0.745057 H
0.278954 -0.039195 0.698027 H
0.360366 -0.070376 0.754020 H
0.732517 0.291565 0.922873 H
0.611838 0.352077 0.995944 H
0.689789 0.355680 1.088431 H
0.892334 0.297798 1.107101 H
0.850387 0.388231 0.870995 H
0.974342 0.335168 0.844876 H
1.113257 0.163209 0.847588 H
0.806860 0.151920 0.804476 H
0.798051 0.040402 0.863116 H
1.314314 0.172171 1.023383 H
1.316940 0.115791 0.856170 H
1.419299 0.122744 0.943795 H
0.856124 -0.281785 0.809697 H
0.839583 -0.126760 0.759280 H
1.046569 -0.175665 0.741080 H
0.966894 -0.370154 0.730018 H
1.215324 -0.371157 0.754943 H
1.221046 -0.539195 0.801973 H
1.139634 -0.570376 0.745980 H
0.266560 0.204800 0.459900 C
0.390370 0.234700 0.469450 C
0.194570 0.170600 0.503510 C
0.435510 0.234800 0.525560 C
0.240660 0.168400 0.558790 C
0.360320 0.201600 0.569700 C
0.586090 0.297800 0.430980 C
0.410990 0.217100 0.367970 C
0.649320 0.300600 0.483600 C
0.652860 0.333100 0.383500 C
0.353240 0.393000 0.338320 C
0.773230 0.329100 0.487800 C
0.774040 0.361900 0.388640 C
0.835360 0.358900 0.440880 C
0.397660 0.682100 0.287550 C
0.498810 0.778100 0.259190 C
0.669550 0.973000 0.273520 C
0.233440 0.704800 0.040100 C
0.109630 0.734700 0.030550 C
0.305430 0.670600 -0.003510 C
0.064490 0.734800 -0.025560 C
0.259340 0.668400 -0.058790 C
0.139680 0.701600 -0.069700 C
-0.086090 0.797800 0.069020 C
0.089010 0.717100 0.132030 C
-0.149320 0.800600 0.016400 C
-0.152860 0.833100 0.116500 C
0.146760 0.893000 0.161680 C
-0.273230 0.829100 0.012200 C
-0.274040 0.861900 0.111360 C
-0.335360 0.858900 0.059120 C
0.102340 1.182100 0.212450 C
0.001190 1.278100 0.240810 C
-0.169550 1.473000 0.226480 C
0.733440 0.795200 0.540100 C
0.609630 0.765300 0.530550 C
0.805430 0.829400 0.496490 C
0.564490 0.765200 0.474440 C
0.759340 0.831600 0.441210 C
0.639680 0.798400 0.430300 C
0.413910 0.702200 0.569020 C
0.589010 0.782900 0.632030 C
0.350680 0.699400 0.516400 C
0.347140 0.666900 0.616500 C
0.646760 0.607000 0.661680 C
0.226770 0.670900 0.512200 C
0.225960 0.638100 0.611360 C
0.164640 0.641100 0.559120 C
0.602340 0.317900 0.712450 C
0.501190 0.221900 0.740810 C
0.330450 0.027000 0.726480 C
0.766560 0.295200 0.959900 C
0.890370 0.265300 0.969450 C
0.694570 0.329400 1.003510 C
0.935510 0.265200 1.025560 C
0.740660 0.331600 1.058790 C
0.860320 0.298400 1.069700 C
1.086090 0.202200 0.930980 C
0.910990 0.282900 0.867970 C
1.149320 0.199400 0.983600 C
1.152860 0.166900 0.883500 C
0.853240 0.107000 0.838320 C
1.273230 0.170900 0.987800 C
1.274040 0.138100 0.888640 C
1.335360 0.141100 0.940880 C
0.897660 -0.182100 0.787550 C
0.998810 -0.278100 0.759190 C
1.169550 -0.473000 0.773520 C
0.583770 0.261800 0.546050 S
-0.083770 0.761800 -0.046050 S
0.416230 0.738200 0.453950 S
1.083770 0.238200 1.046050 S
0.464280 0.261100 0.425040 N
0.035720 0.761100 0.074960 N
0.535720 0.738900 0.574960 N
0.964280 0.238900 0.925040 N
0.443500 0.527000 0.323390 O
0.572210 0.883600 0.299070 O
0.056500 1.027000 0.176610 O
-0.072210 1.383600 0.200930 O
0.556500 0.473000 0.676610 O
0.427790 0.116400 0.700930 O
0.943500 -0.027000 0.823390 O
1.072210 -0.383600 0.799070 O
0.198070 0.792000 0.380570 F
-0.066980 0.881700 0.332570 F
0.101160 0.771500 0.295420 F
0.029950 0.896900 0.417760 F
0.103990 1.057500 0.344800 F
0.029090 0.612400 0.368790 F
0.301930 0.292000 0.119430 F
0.566980 0.381700 0.167430 F
0.398840 0.271500 0.204580 F
0.470050 0.396900 0.082240 F
0.396010 0.557500 0.155200 F
0.470910 0.112400 0.131210 F
0.801930 0.208000 0.619430 F
1.066980 0.118300 0.667430 F
0.898840 0.228500 0.704580 F
0.970050 0.103100 0.582240 F
0.896010 -0.057500 0.655200 F
0.970910 0.387600 0.631210 F
0.698070 0.708000 0.880570 F
0.433020 0.618300 0.832570 F
0.601160 0.728500 0.795420 F
0.529950 0.603100 0.917760 F
0.603990 0.442500 0.844800 F
0.529090 0.887600 0.868790 F
