Ge2 H54 C44  [TRI,TRI1b,aP100] (STD_PRIM
   1.00000000000000     
     7.5809637436153112   -0.0247324135648001   -0.0794753450601113
    -1.1114509123805560    7.5973874338084757   -0.0378283734812360
     0.0623903606517877   -3.5578908798428746   16.3838668996343380
   C    Si   H 
    44     2    54
Direct
  0.6802621548262451  0.3341893104177061  0.2720775355239056
  0.0481688879469786  0.3207577166692772  0.1865958003380115
  0.6874491348172000  0.3628489351349629  0.0875295380567636
  0.7092733894633554  0.9760360785541948  0.1367050313163389
  0.6231373683525803  0.3878993943728730  0.3399465050717438
  0.1238869422996345  0.2441071382159734  0.2541465635098561
  0.0903636433955484  0.5268571045895740  0.2044252277010870
  0.7686362629083661  0.3083663805725223  0.0043431343927836
  0.4840002429618906  0.3244857760397366  0.0831334974548739
  0.8490364903194205  0.8899676004255497  0.0827786889186939
  0.6683435949300929  0.8874882896521186  0.2091752318427353
  0.5598759494493208  0.4450270995458965  0.4188481831649327
  0.4519223543220363  0.3177092129833241  0.4555344941719071
  0.6078538233783419  0.6274928564504947  0.4620309709218873
  0.4039690459612402  0.1370085556452523  0.4138888483686642
  0.3921461766216581  0.3725071435495053  0.5379690290781127
  0.5480776456779637  0.6822907870166759  0.5444655058280929
  0.7099745534433382  0.7572053447023990  0.4263433559266829
  0.3028230050891665  0.0095105287334007  0.4494592918983003
  0.4401240505506792  0.5549729004541035  0.5811518168350673
  0.2900254465566618  0.2427946552976010  0.5736566440733171
  0.5960309540387598  0.8629914443547477  0.5861111516313358
  0.7552632594343720  0.9364788809531674  0.4678898278159949
  0.2564489026332026  0.8258503019175976  0.4070517934271649
  0.2447367405656280  0.0635211190468326  0.5321101721840122
  0.3768626316474197  0.6121006056271270  0.6600534949282633
  0.6971769949108335  0.9904894712665993  0.5505407081016997
  0.8581561988617850  0.0696595044549184  0.4324645646859437
  0.1578915037724187  0.7025062283780272  0.4435354470690456
  0.1418438011382221  0.9303404955450816  0.5675354353140563
  0.3197378451737620  0.6658106895822939  0.7279224644760944
  0.7435510973667974  0.1741496980824024  0.5929482065728351
  0.8998130565901619  0.2444883070255841  0.4753204071068637
  0.1001869434098381  0.7555116929744159  0.5246795928931363
  0.8421084962275813  0.2974937716219728  0.5564645529309544
  0.9518311120530214  0.6792422833307157  0.8134041996619885
  0.3125508651828000  0.6371510648650371  0.9124704619432364
  0.2907266105366446  0.0239639214458052  0.8632949686836611
  0.8761130577003655  0.7558928617840266  0.7458534364901510
  0.9096363566044516  0.4731428954104260  0.7955747722989130
  0.2313637370916339  0.6916336194274777  0.9956568656072164
  0.5159997570381094  0.6755142239602634  0.9168665025451261
  0.1509635096805795  0.1100323995744503  0.9172213110813061
  0.3316564050699071  0.1125117103478814  0.7908247681572647
  0.7843879282706041  0.2442394630607936  0.1696851535335639
  0.2156120717293959  0.7557605369391993  0.8303148464664361
  0.1050788577882642  0.2647695329736095  0.1279579975276874
  0.7299867545556822  0.5081233155257365  0.1121157716777148
  0.5850069129597202  0.9602870184106393  0.0995895730996637
  0.2684457364971493  0.2906328190411713  0.2645062382631593
  0.1034575669601523  0.0957312130084844  0.2398344425841543
  0.0602500554604930  0.2879014231075914  0.3123091205983783
  0.2354127043674481  0.5721175908448402  0.2140092485643876
  0.0268579577711918  0.5878051026315276  0.2602858520684705
  0.0449316842817993  0.5829290001461587  0.1542529020257248
  0.7202043421109110  0.3787777678595887  0.9597882919458556
  0.7327680159610139  0.1627827205624612  0.9783494596459192
  0.9150654723811300  0.3396508012812802  0.0079570997344618
  0.4282642355865747  0.3933401105083689  0.0398220273689276
  0.4283153033119831  0.3695694453816429  0.1430703135049498
  0.4345793064588932  0.1793559928408683  0.0620260293694486
  0.8053413769526330  0.7440958900648198  0.0604202942786287
  0.9771191694168309  0.9062089894634369  0.1167423502115099
  0.8747389008413862  0.9482680386435760  0.0288299839509492
  0.6117939327513824  0.7438390528027909  0.1883418099333483
  0.5730395761825449  0.9532876819666214  0.2496719597787163
  0.7898017988540218  0.8937068750609782  0.2464600487824669
  0.4500813093094820  0.0960270651428559  0.3522004522185398
  0.7543163647311388  0.7148185998960415  0.3643487639957215
  0.2456836352688612  0.2851814001039585  0.6356512360042785
  0.5499186906905180  0.9039729348571441  0.6477995477814602
  0.3032704462894316  0.7855580616623641  0.3453865809822076
  0.9042126943589963  0.0293524929925368  0.3707249144499158
  0.1249976579691676  0.5624823969327082  0.4105847363565900
  0.0957873056409966  0.9706475070074703  0.6292750855500842
  0.6967295537105755  0.2144419383376430  0.6546134190177924
  0.9788639100418308  0.3444055154902799  0.4476129027905955
  0.0211360899581621  0.6555944845097272  0.5523870972094045
  0.8750023420308324  0.4375176030672918  0.5894152636434100
  0.8949211422117358  0.7352304670263905  0.8720420024723126
  0.2700132454443178  0.4918766844742635  0.8878842283222923
  0.4149930870402798  0.0397129815893535  0.9004104269003363
  0.7315542635028578  0.7093671809588287  0.7354937617368407
  0.8965424330398477  0.9042687869915156  0.7601655574158457
  0.9397499445395070  0.7120985768924086  0.6876908794016217
  0.7645872956325519  0.4278824091551598  0.7859907514356124
  0.9731420422288082  0.4121948973684724  0.7397141479315223
  0.9550683157182007  0.4170709998538413  0.8457470979742752
  0.2797956578890890  0.6212222321404113  0.0402117080541444
  0.2672319840389790  0.8372172794375388  0.0216505403540808
  0.0849345276188700  0.6603491987187198  0.9920429002655382
  0.5717357644134324  0.6066598894916311  0.9601779726310724
  0.5716846966880169  0.6304305546183571  0.8569296864950502
  0.5654206935410997  0.8206440071591317  0.9379739706305514
  0.1946586230473670  0.2559041099351802  0.9395797057213713
  0.0228808305831620  0.0937910105365702  0.8832576497884901
  0.1252610991586138  0.0517319613564240  0.9711700160490437
  0.3882060672486176  0.2561609471972019  0.8116581900666517
  0.4269604238174551  0.0467123180333786  0.7503280402212766
  0.2101982011459782  0.1062931249390218  0.7535399512175331
 
  0.00000000E+00  0.00000000E+00  0.00000000E+00
  0.00000000E+00  0.00000000E+00  0.00000000E+00
  0.00000000E+00  0.00000000E+00  0.00000000E+00
  0.00000000E+00  0.00000000E+00  0.00000000E+00
  0.00000000E+00  0.00000000E+00  0.00000000E+00
  0.00000000E+00  0.00000000E+00  0.00000000E+00
  0.00000000E+00  0.00000000E+00  0.00000000E+00
  0.00000000E+00  0.00000000E+00  0.00000000E+00
  0.00000000E+00  0.00000000E+00  0.00000000E+00
  0.00000000E+00  0.00000000E+00  0.00000000E+00
  0.00000000E+00  0.00000000E+00  0.00000000E+00
  0.00000000E+00  0.00000000E+00  0.00000000E+00
  0.00000000E+00  0.00000000E+00  0.00000000E+00
  0.00000000E+00  0.00000000E+00  0.00000000E+00
  0.00000000E+00  0.00000000E+00  0.00000000E+00
  0.00000000E+00  0.00000000E+00  0.00000000E+00
  0.00000000E+00  0.00000000E+00  0.00000000E+00
  0.00000000E+00  0.00000000E+00  0.00000000E+00
  0.00000000E+00  0.00000000E+00  0.00000000E+00
  0.00000000E+00  0.00000000E+00  0.00000000E+00
  0.00000000E+00  0.00000000E+00  0.00000000E+00
  0.00000000E+00  0.00000000E+00  0.00000000E+00
  0.00000000E+00  0.00000000E+00  0.00000000E+00
  0.00000000E+00  0.00000000E+00  0.00000000E+00
  0.00000000E+00  0.00000000E+00  0.00000000E+00
  0.00000000E+00  0.00000000E+00  0.00000000E+00
  0.00000000E+00  0.00000000E+00  0.00000000E+00
  0.00000000E+00  0.00000000E+00  0.00000000E+00
  0.00000000E+00  0.00000000E+00  0.00000000E+00
  0.00000000E+00  0.00000000E+00  0.00000000E+00
  0.00000000E+00  0.00000000E+00  0.00000000E+00
  0.00000000E+00  0.00000000E+00  0.00000000E+00
  0.00000000E+00  0.00000000E+00  0.00000000E+00
  0.00000000E+00  0.00000000E+00  0.00000000E+00
  0.00000000E+00  0.00000000E+00  0.00000000E+00
  0.00000000E+00  0.00000000E+00  0.00000000E+00
  0.00000000E+00  0.00000000E+00  0.00000000E+00
  0.00000000E+00  0.00000000E+00  0.00000000E+00
  0.00000000E+00  0.00000000E+00  0.00000000E+00
  0.00000000E+00  0.00000000E+00  0.00000000E+00
  0.00000000E+00  0.00000000E+00  0.00000000E+00
  0.00000000E+00  0.00000000E+00  0.00000000E+00
  0.00000000E+00  0.00000000E+00  0.00000000E+00
  0.00000000E+00  0.00000000E+00  0.00000000E+00
  0.00000000E+00  0.00000000E+00  0.00000000E+00
  0.00000000E+00  0.00000000E+00  0.00000000E+00
  0.00000000E+00  0.00000000E+00  0.00000000E+00
  0.00000000E+00  0.00000000E+00  0.00000000E+00
  0.00000000E+00  0.00000000E+00  0.00000000E+00
  0.00000000E+00  0.00000000E+00  0.00000000E+00
  0.00000000E+00  0.00000000E+00  0.00000000E+00
  0.00000000E+00  0.00000000E+00  0.00000000E+00
  0.00000000E+00  0.00000000E+00  0.00000000E+00
  0.00000000E+00  0.00000000E+00  0.00000000E+00
  0.00000000E+00  0.00000000E+00  0.00000000E+00
  0.00000000E+00  0.00000000E+00  0.00000000E+00
  0.00000000E+00  0.00000000E+00  0.00000000E+00
  0.00000000E+00  0.00000000E+00  0.00000000E+00
  0.00000000E+00  0.00000000E+00  0.00000000E+00
  0.00000000E+00  0.00000000E+00  0.00000000E+00
  0.00000000E+00  0.00000000E+00  0.00000000E+00
  0.00000000E+00  0.00000000E+00  0.00000000E+00
  0.00000000E+00  0.00000000E+00  0.00000000E+00
  0.00000000E+00  0.00000000E+00  0.00000000E+00
  0.00000000E+00  0.00000000E+00  0.00000000E+00
  0.00000000E+00  0.00000000E+00  0.00000000E+00
  0.00000000E+00  0.00000000E+00  0.00000000E+00
  0.00000000E+00  0.00000000E+00  0.00000000E+00
  0.00000000E+00  0.00000000E+00  0.00000000E+00
  0.00000000E+00  0.00000000E+00  0.00000000E+00
  0.00000000E+00  0.00000000E+00  0.00000000E+00
  0.00000000E+00  0.00000000E+00  0.00000000E+00
  0.00000000E+00  0.00000000E+00  0.00000000E+00
  0.00000000E+00  0.00000000E+00  0.00000000E+00
  0.00000000E+00  0.00000000E+00  0.00000000E+00
  0.00000000E+00  0.00000000E+00  0.00000000E+00
  0.00000000E+00  0.00000000E+00  0.00000000E+00
  0.00000000E+00  0.00000000E+00  0.00000000E+00
  0.00000000E+00  0.00000000E+00  0.00000000E+00
  0.00000000E+00  0.00000000E+00  0.00000000E+00
  0.00000000E+00  0.00000000E+00  0.00000000E+00
  0.00000000E+00  0.00000000E+00  0.00000000E+00
  0.00000000E+00  0.00000000E+00  0.00000000E+00
  0.00000000E+00  0.00000000E+00  0.00000000E+00
  0.00000000E+00  0.00000000E+00  0.00000000E+00
  0.00000000E+00  0.00000000E+00  0.00000000E+00
  0.00000000E+00  0.00000000E+00  0.00000000E+00
  0.00000000E+00  0.00000000E+00  0.00000000E+00
  0.00000000E+00  0.00000000E+00  0.00000000E+00
  0.00000000E+00  0.00000000E+00  0.00000000E+00
  0.00000000E+00  0.00000000E+00  0.00000000E+00
  0.00000000E+00  0.00000000E+00  0.00000000E+00
  0.00000000E+00  0.00000000E+00  0.00000000E+00
  0.00000000E+00  0.00000000E+00  0.00000000E+00
  0.00000000E+00  0.00000000E+00  0.00000000E+00
  0.00000000E+00  0.00000000E+00  0.00000000E+00
  0.00000000E+00  0.00000000E+00  0.00000000E+00
  0.00000000E+00  0.00000000E+00  0.00000000E+00
  0.00000000E+00  0.00000000E+00  0.00000000E+00
  0.00000000E+00  0.00000000E+00  0.00000000E+00
