P1 F6
1.0
22.973219 0.000000 0.000000
0.000000 23.006650 0.000000
0.000000 0.000000 22.980324
P F
1 6
direct
0.499520 0.499658 0.499679 P
0.564677 0.487370 0.521714 F
0.435256 0.513707 0.478308 F
0.517357 0.481351 0.435186 F
0.482586 0.518170 0.564876 F
0.518739 0.565324 0.486727 F
0.482166 0.434637 0.513714 F
