pymatgen v2019.10.4 with grid density = 1689 / atom
0
Gamma
2 3 1
