EMC at frac (0, 0, 0)
19
Reciprocal
0.000000 0.000000 0.000000  1.01
-0.086276 0.011344 -0.002454  1.01
0.086276 -0.011344 0.002454  1.01
-0.000914 -0.080974 0.039082  1.01
0.000914 0.080974 -0.039082  1.01
-0.000283 0.001019 -0.174891  1.01
0.000283 -0.001019 0.174891  1.01
-0.087190 -0.069630 0.036628  1.01
0.087190 0.069630 -0.036628  1.01
0.085361 -0.092319 0.041536  1.01
-0.085361 0.092319 -0.041536  1.01
-0.086558 0.012363 -0.177345  1.01
0.086558 -0.012363 0.177345  1.01
0.085993 -0.010325 -0.172437  1.01
-0.085993 0.010325 0.172437  1.01
-0.001197 -0.079955 -0.135809  1.01
0.001197 0.079955 0.135809  1.01
0.000632 0.081993 -0.213973  1.01
-0.000632 -0.081993 0.213973  1.01
