H52 C80 S12 N8 O16 F24
1.0
8.297605 0.000000 -0.560291
0.000000 12.597000 0.000000
0.000000 0.000000 20.975200
H C S N O F
52 80 12 8 16 24
direct
0.772703 0.498469 0.235560 H
0.772687 0.328845 0.277810 H
0.790627 0.302412 0.388977 H
0.808170 0.447051 0.457207 H
0.774861 0.873056 0.251641 H
0.988795 0.696893 0.205972 H
0.507899 0.678204 0.227458 H
0.824980 0.871968 0.475242 H
0.786471 1.031054 0.307682 H
0.936109 0.713368 0.094811 H
0.457791 0.692129 0.116122 H
0.809727 1.031694 0.419941 H
0.671293 0.712918 0.050904 H
1.227297 -0.001531 0.264440 H
1.227313 -0.171155 0.222190 H
1.209373 -0.197588 0.111023 H
1.191830 -0.052949 0.042793 H
1.225139 0.373056 0.248359 H
1.011205 0.196893 0.294028 H
1.492101 0.178204 0.272542 H
1.175020 0.371968 0.024758 H
1.213529 0.531054 0.192318 H
1.063891 0.213368 0.405189 H
1.542209 0.192129 0.383878 H
1.190273 0.531694 0.080059 H
1.328707 0.212918 0.449096 H
1.227297 0.501531 0.764440 H
1.227313 0.671155 0.722190 H
1.209373 0.697588 0.611023 H
1.191830 0.552949 0.542793 H
1.225139 0.126944 0.748359 H
1.011205 0.303107 0.794028 H
1.492101 0.321796 0.772542 H
1.175020 0.128032 0.524758 H
1.213529 -0.031054 0.692318 H
1.063891 0.286632 0.905189 H
1.542209 0.307871 0.883878 H
1.190273 -0.031694 0.580059 H
1.328707 0.287082 0.949096 H
0.772703 1.001531 -0.264440 H
0.772687 1.171155 -0.222190 H
0.790627 1.197588 -0.111023 H
0.808170 1.052949 -0.042793 H
0.774861 0.626944 -0.248359 H
0.988795 0.803107 -0.294028 H
0.507899 0.821796 -0.272542 H
0.824980 0.628032 -0.024758 H
0.786471 0.468946 -0.192318 H
0.936109 0.786632 -0.405189 H
0.457791 0.807871 -0.383878 H
0.809727 0.468306 -0.080059 H
0.671293 0.787082 -0.449096 H
0.778930 0.489060 0.280600 C
0.787400 0.578700 0.321010 C
0.779580 0.388350 0.305690 C
0.799230 0.561700 0.387750 C
0.790330 0.372370 0.372060 C
0.800360 0.457910 0.412290 C
0.791190 0.773570 0.329280 C
0.752290 0.687580 0.225600 C
0.805690 0.774990 0.396790 C
0.784400 0.871810 0.297020 C
0.881200 0.696920 0.187610 C
0.594420 0.685430 0.200430 C
0.813780 0.871820 0.429870 C
0.791390 0.965690 0.330320 C
0.849550 0.706360 0.121840 C
0.565280 0.694090 0.134550 C
0.805680 0.966340 0.397290 C
0.692250 0.705550 0.095770 C
1.221070 -0.010940 0.219400 C
1.212600 0.078700 0.178990 C
1.220420 -0.111650 0.194310 C
1.200770 0.061700 0.112250 C
1.209670 -0.127630 0.127940 C
1.199640 -0.042090 0.087710 C
1.208810 0.273570 0.170720 C
1.247710 0.187580 0.274400 C
1.194310 0.274990 0.103210 C
1.215600 0.371810 0.202980 C
1.118800 0.196920 0.312390 C
1.405580 0.185430 0.299570 C
1.186220 0.371820 0.070130 C
1.208610 0.465690 0.169680 C
1.150450 0.206360 0.378160 C
1.434720 0.194090 0.365450 C
1.194320 0.466340 0.102710 C
1.307750 0.205550 0.404230 C
1.221070 0.510940 0.719400 C
1.212600 0.421300 0.678990 C
1.220420 0.611650 0.694310 C
1.200770 0.438300 0.612250 C
1.209670 0.627630 0.627940 C
1.199640 0.542090 0.587710 C
1.208810 0.226430 0.670720 C
1.247710 0.312420 0.774400 C
1.194310 0.225010 0.603210 C
1.215600 0.128190 0.702980 C
1.118800 0.303080 0.812390 C
1.405580 0.314570 0.799570 C
1.186220 0.128180 0.570130 C
1.208610 0.034310 0.669680 C
1.150450 0.293640 0.878160 C
1.434720 0.305910 0.865450 C
1.194320 0.033660 0.602710 C
1.307750 0.294450 0.904230 C
0.778930 1.010940 -0.219400 C
0.787400 0.921300 -0.178990 C
0.779580 1.111650 -0.194310 C
0.799230 0.938300 -0.112250 C
0.790330 1.127630 -0.127940 C
0.800360 1.042090 -0.087710 C
0.791190 0.726430 -0.170720 C
0.752290 0.812420 -0.274400 C
0.805690 0.725010 -0.103210 C
0.784400 0.628190 -0.202980 C
0.881200 0.803080 -0.312390 C
0.594420 0.814570 -0.299570 C
0.813780 0.628180 -0.070130 C
0.791390 0.534310 -0.169680 C
0.849550 0.793640 -0.378160 C
0.565280 0.805910 -0.365450 C
0.805680 0.533660 -0.102710 C
0.692250 0.794450 -0.404230 C
0.306180 0.907530 0.420450 C
0.312840 0.513480 0.384390 C
0.693820 0.407530 0.079550 C
0.687160 0.013480 0.115610 C
0.693820 0.092470 0.579550 C
0.687160 0.486520 0.615610 C
0.306180 0.592470 0.920450 C
0.312840 0.986520 0.884390 C
0.811810 0.662370 0.442930 S
1.188190 0.162370 0.057070 S
1.188190 0.337630 0.557070 S
0.811810 0.837630 -0.057070 S
0.277580 0.777090 0.457320 S
0.291940 0.647490 0.350840 S
0.722420 0.277090 0.042680 S
0.708060 0.147490 0.149160 S
0.722420 0.222910 0.542680 S
0.708060 0.352510 0.649160 S
0.277580 0.722910 0.957320 S
0.291940 0.852510 0.850840 S
0.782160 0.679710 0.294680 N
1.217840 0.179710 0.205320 N
1.217840 0.320290 0.705320 N
0.782160 0.820290 -0.205320 N
0.194490 0.709090 0.401150 N
0.805510 0.209090 0.098850 N
0.805510 0.290910 0.598850 N
0.194490 0.790910 0.901150 N
0.159890 0.796820 0.502880 O
0.435570 0.744680 0.480290 O
0.453920 0.681240 0.344310 O
0.189430 0.633380 0.293840 O
0.840110 0.296820 -0.002880 O
0.564430 0.244680 0.019710 O
0.546080 0.181240 0.155690 O
0.810570 0.133380 0.206160 O
0.840110 0.203180 0.497120 O
0.564430 0.255320 0.519710 O
0.546080 0.318760 0.655690 O
0.810570 0.366620 0.706160 O
0.159890 0.703180 1.002880 O
0.435570 0.755320 0.980290 O
0.453920 0.818760 0.844310 O
0.189430 0.866620 0.793840 O
0.411030 0.903700 0.376160 F
0.169540 0.944580 0.393420 F
0.360340 0.975100 0.465270 F
0.395770 0.514230 0.440570 F
0.390680 0.452730 0.344850 F
0.169970 0.470510 0.392020 F
0.588970 0.403700 0.123840 F
0.830460 0.444580 0.106580 F
0.639660 0.475100 0.034730 F
0.604230 0.014230 0.059430 F
0.609320 -0.047270 0.155150 F
0.830030 -0.029490 0.107980 F
0.588970 0.096300 0.623840 F
0.830460 0.055420 0.606580 F
0.639660 0.024900 0.534730 F
0.604230 0.485770 0.559430 F
0.609320 0.547270 0.655150 F
0.830030 0.529490 0.607980 F
0.411030 0.596300 0.876160 F
0.169540 0.555420 0.893420 F
0.360340 0.524900 0.965270 F
0.395770 0.985770 0.940570 F
0.390680 1.047270 0.844850 F
0.169970 1.029490 0.892020 F
