H16 C20
1.0
6.693132 0.000000 -4.445222
0.000000 5.889900 0.000000
0.000000 0.000000 8.565000
C H
20 16
direct
0.086800 0.018800 0.331600 C
0.115800 0.164100 0.222900 C
-0.010200 -0.192100 0.259100 C
0.047400 0.104800 0.035300 C
-0.074600 -0.251800 0.080700 C
-0.047400 -0.104800 -0.035300 C
0.074600 0.251800 -0.080700 C
-0.115800 -0.164100 -0.222900 C
0.010200 0.192100 -0.259100 C
-0.086800 -0.018800 -0.331600 C
-0.586800 0.518800 -0.331600 C
-0.615800 0.664100 -0.222900 C
-0.489800 0.307900 -0.259100 C
-0.547400 0.604800 -0.035300 C
-0.425400 0.248200 -0.080700 C
-0.452600 0.395200 0.035300 C
-0.574600 0.751800 0.080700 C
-0.384200 0.335900 0.222900 C
-0.510200 0.692100 0.259100 C
-0.413200 0.481200 0.331600 C
0.131400 0.059600 0.453700 H
0.180500 0.302000 0.272300 H
-0.029900 -0.289500 0.333000 H
-0.137400 -0.391100 0.033700 H
0.137400 0.391100 -0.033700 H
-0.180500 -0.302000 -0.272300 H
0.029900 0.289500 -0.333000 H
-0.131400 -0.059600 -0.453700 H
-0.631400 0.559600 -0.453700 H
-0.680500 0.802000 -0.272300 H
-0.470100 0.210500 -0.333000 H
-0.362600 0.108900 -0.033700 H
-0.637400 0.891100 0.033700 H
-0.319500 0.198000 0.272300 H
-0.529900 0.789500 0.333000 H
-0.368600 0.440400 0.453700 H
