Ge2 H54 C44
1.0
7.728300 0.000000 0.000000
1.108809 7.683203 0.000000
0.227440 3.490767 16.514058
C Ge H
44 2 54
direct
0.311900 0.338500 0.723890 C
0.370700 0.389600 0.658380 C
0.437800 0.446500 0.579910 C
-0.044500 0.325200 0.812600 C
0.307200 0.360100 0.907000 C
0.290600 -0.012600 0.861300 C
0.545700 0.321800 0.543110 C
0.392700 0.625900 0.537420 C
-0.122300 0.251200 0.746900 C
-0.082400 0.527900 0.795700 C
0.223900 0.312700 0.988300 C
0.501200 0.324600 0.910600 C
0.160000 -0.103000 0.915300 C
0.333000 -0.104800 0.790600 C
0.590700 0.142700 0.583950 C
0.607300 0.374100 0.462580 C
0.454300 0.678200 0.456890 C
0.290200 0.752900 0.573160 C
0.692700 0.019400 0.548160 C
0.562200 0.553500 0.420090 C
0.709800 0.247100 0.426840 C
0.409300 0.857300 0.416050 C
0.248300 0.927800 0.532310 C
0.737000 -0.162400 0.589400 C
0.751700 0.072200 0.467690 C
0.629300 0.610400 0.341620 C
0.307300 0.980600 0.451840 C
0.144200 1.060300 0.568080 C
0.835500 -0.282100 0.552500 C
0.855800 -0.060300 0.431920 C
0.688100 0.661500 0.276110 C
0.263000 1.162400 0.410600 C
0.106200 1.230000 0.526400 C
0.893800 -0.230000 0.473600 C
0.164500 1.282100 0.447500 C
1.044500 0.674800 0.187400 C
0.692800 0.639900 0.093000 C
0.709400 1.012600 0.138700 C
1.122300 0.748800 0.253100 C
1.082400 0.472100 0.204300 C
0.776100 0.687300 0.011700 C
0.498800 0.675400 0.089400 C
0.840000 1.103000 0.084700 C
0.667000 1.104800 0.209400 C
0.208160 0.249350 0.825170 Ge
0.791840 0.750650 0.174830 Ge
-0.099678 0.278895 0.864435 H
0.275652 0.490259 0.888294 H
0.399670 -0.026151 0.893462 H
-0.245250 0.299354 0.739260 H
-0.109994 0.122606 0.762748 H
-0.061420 0.284477 0.696647 H
-0.206889 0.565456 0.786120 H
-0.019202 0.576569 0.748199 H
-0.045287 0.570411 0.841926 H
0.267758 0.377282 1.025337 H
0.252313 0.185821 1.009571 H
0.098035 0.344368 0.982397 H
0.544348 0.384947 0.949493 H
0.547058 0.367996 0.857554 H
0.538836 0.197557 0.926971 H
0.202323 -0.229448 0.930727 H
0.049117 -0.085470 0.886522 H
0.144792 -0.053050 0.963420 H
0.372788 -0.230195 0.811104 H
0.423944 -0.051434 0.758477 H
0.228786 -0.091392 0.757118 H
0.550294 0.106600 0.636710 H
0.249194 0.718350 0.625918 H
0.750806 0.281650 0.374082 H
0.449706 0.893400 0.363290 H
0.697807 -0.199216 0.642338 H
0.102291 1.028471 0.620860 H
0.864498 -0.400666 0.580291 H
0.897709 -0.028471 0.379140 H
0.302193 1.199216 0.357662 H
0.039126 1.314793 0.550961 H
0.960874 -0.314793 0.449039 H
0.135502 1.400666 0.419709 H
1.099678 0.721105 0.135565 H
0.724348 0.509741 0.111706 H
0.600330 1.026151 0.106538 H
1.245250 0.700646 0.260740 H
1.109994 0.877394 0.237252 H
1.061420 0.715523 0.303353 H
1.206889 0.434544 0.213880 H
1.019202 0.423431 0.251801 H
1.045287 0.429589 0.158074 H
0.732242 0.622718 -0.025337 H
0.747687 0.814179 -0.009571 H
0.901965 0.655632 0.017603 H
0.455652 0.615053 0.050507 H
0.452942 0.632004 0.142446 H
0.461164 0.802443 0.073029 H
0.797677 1.229448 0.069273 H
0.950883 1.085470 0.113478 H
0.855208 1.053050 0.036580 H
0.627212 1.230195 0.188896 H
0.576056 1.051434 0.241523 H
0.771214 1.091392 0.242882 H
