H19 C17 S1 N1 O2
1.0
25.799358 0.000000 0.000000
0.000000 27.143621 0.000000
0.000000 0.000000 29.955218
H C S N O
19 17 1 1 2
direct
0.542833 0.391997 0.484166 H
0.595585 0.365107 0.426981 H
0.597570 0.406371 0.358067 H
0.547192 0.476404 0.347948 H
0.472290 0.399557 0.512616 H
0.440081 0.440565 0.538981 H
0.429826 0.509503 0.552380 H
0.513805 0.405780 0.579336 H
0.550411 0.435898 0.545778 H
0.417122 0.604589 0.422428 H
0.379708 0.579966 0.551295 H
0.372783 0.628059 0.486522 H
0.578561 0.467849 0.615526 H
0.530802 0.447833 0.644556 H
0.505396 0.533017 0.655675 H
0.558249 0.517742 0.680285 H
0.590868 0.628285 0.631660 H
0.593326 0.598287 0.677603 H
0.538607 0.615919 0.658166 H
0.543575 0.409736 0.456835 C
0.512593 0.452401 0.452008 C
0.574693 0.393533 0.422681 C
0.514932 0.477199 0.410444 C
0.576205 0.418182 0.381577 C
0.546465 0.459540 0.375732 C
0.453272 0.511931 0.486833 C
0.473893 0.433447 0.524745 C
0.449261 0.541793 0.448149 C
0.427048 0.528047 0.525593 C
0.515906 0.435473 0.560231 C
0.419389 0.584933 0.448593 C
0.397578 0.570212 0.525012 C
0.393385 0.599048 0.486477 C
0.542643 0.475099 0.625122 C
0.541690 0.522477 0.650781 C
0.573199 0.603824 0.650311 C
0.477443 0.527791 0.397643 S
0.481632 0.468429 0.487085 N
0.509814 0.478350 0.586901 O
0.568643 0.558972 0.626441 O
