Sb1 Cl6
1.0
24.723036 0.000000 0.000000
0.000000 24.706075 0.000000
0.000000 0.000000 24.695873
Sb Cl
1 6
direct
0.500313 0.500320 0.500027 Sb
0.505057 0.595059 0.509949 Cl
0.494780 0.404577 0.489293 Cl
0.404374 0.506813 0.500402 Cl
0.595412 0.494862 0.500450 Cl
0.498667 0.489198 0.594981 Cl
0.500636 0.508391 0.404833 Cl
