H19 C17 S1 N1 O2
1.0
26.528917 0.000000 0.000000
0.000000 29.936417 0.000000
0.000000 0.000000 27.858614
H C S N O
19 17 1 1 2
direct
0.437838 0.559239 0.416510 H
0.425918 0.635549 0.412830 H
0.438275 0.680664 0.480739 H
0.460821 0.647829 0.553325 H
0.418011 0.497793 0.431859 H
0.437111 0.452963 0.457224 H
0.485733 0.424741 0.498520 H
0.475838 0.465362 0.380301 H
0.502618 0.509016 0.401990 H
0.500267 0.497054 0.647087 H
0.510169 0.385713 0.566092 H
0.515796 0.420901 0.641173 H
0.586381 0.457692 0.384695 H
0.542316 0.425827 0.364998 H
0.563002 0.374201 0.428919 H
0.606161 0.378781 0.388868 H
0.649565 0.348747 0.460237 H
0.608207 0.363312 0.499017 H
0.664117 0.383204 0.501914 H
0.442477 0.576750 0.444603 C
0.456340 0.555615 0.488031 C
0.435624 0.622219 0.442366 C
0.462875 0.583433 0.528730 C
0.442687 0.649232 0.482845 C
0.456104 0.629765 0.525653 C
0.478293 0.486224 0.530837 C
0.447518 0.483256 0.446986 C
0.484568 0.507432 0.575942 C
0.488635 0.439909 0.528346 C
0.489186 0.479084 0.410034 C
0.497693 0.482582 0.616840 C
0.502866 0.416690 0.568661 C
0.506857 0.437639 0.613482 C
0.561469 0.434637 0.393992 C
0.587909 0.394894 0.414586 C
0.637244 0.373406 0.480187 C
0.476463 0.563817 0.585548 S
0.462563 0.509448 0.490167 N
0.527961 0.452063 0.429415 O
0.622640 0.409414 0.450431 O
