H11 C13 S1 N1
1.0
25.693913 0.000000 0.000000
0.000000 27.509221 0.000000
0.000000 0.000000 25.552786
H C S N
11 13 1 1
direct
0.473045 0.421715 0.404280 H
0.537659 0.363828 0.401904 H
0.607050 0.365651 0.460962 H
0.609955 0.425522 0.524858 H
0.422272 0.534606 0.410156 H
0.399062 0.482581 0.425668 H
0.448366 0.486121 0.387588 H
0.395175 0.566283 0.471577 H
0.518259 0.581953 0.604895 H
0.388349 0.627978 0.532242 H
0.449894 0.636799 0.598898 H
0.501078 0.423591 0.428442 C
0.502778 0.461901 0.464873 C
0.539290 0.388925 0.427377 C
0.543825 0.461253 0.502055 C
0.580505 0.389654 0.462750 C
0.582372 0.425210 0.500099 C
0.461745 0.535566 0.500609 C
0.430997 0.500698 0.417922 C
0.497988 0.540749 0.541707 C
0.420577 0.569057 0.498421 C
0.493259 0.578614 0.577740 C
0.416553 0.605748 0.534503 C
0.452944 0.611012 0.574342 C
0.551268 0.503747 0.550574 S
0.465937 0.498802 0.463458 N
